CONTCAR                                 
   1.00000000000000     
     5.8957523259890010   -0.0033993694591183   -0.0001723509183080
    -0.0089156759110179    9.1699951080134294   -0.0163175086785504
     0.0501362785963133   -0.0239294879652807   34.4288490132300922
   Ti   O 
    32    66
Selective dynamics
Direct
  0.1078799960000012  0.2397200019999985  0.0843300000000013   F   F   F
  0.1068978217928728  0.2469260869348406  0.2198833539111061   T   T   T
  0.1167364041978965  0.2537199266133456  0.3562960103140254   T   T   T
  0.1043088111420972  0.2328001198488875  0.4958447218696769   T   T   T
  0.3578799960000012  0.4897199870000009  0.0236799999999988   F   F   F
  0.3591969836492486  0.4947642039760701  0.1525129160392090   T   T   T
  0.3567560951218383  0.5049004300401050  0.2859160422289199   T   T   T
  0.3743642391235573  0.4955583723008546  0.4254489852747849   T   T   T
  0.6078799960000012  0.2397200019999985  0.0843300000000013   F   F   F
  0.6070769272895494  0.2451953751039144  0.2202703231331508   T   T   T
  0.5914905211622686  0.2457028052485226  0.3540340421309916   T   T   T
  0.6077350711607836  0.2287955204024319  0.4966334927320829   T   T   T
  0.8578799960000012  0.4897199870000009  0.0236799999999988   F   F   F
  0.8578345945720297  0.4930670682258020  0.1520674176499735   T   T   T
  0.8565303139693268  0.4930003293296435  0.2897928812357954   T   T   T
  0.8573749843971341  0.4904740938560126  0.4241232041953734   T   T   T
  0.1078799960000012  0.7397199870000009  0.0843300000000013   F   F   F
  0.1033940210615371  0.7457581566605557  0.2190600394302233   T   T   T
  0.1065180679637909  0.7423303043156948  0.3576456235594512   T   T   T
  0.1326732040389489  0.6845446598772467  0.5000427899594028   T   T   T
  0.3578799960000012  0.9897199870000009  0.0236799999999988   F   F   F
  0.3576350951697806  0.9937790512835002  0.1527391123478940   T   T   T
  0.3576178503566946  0.9916898686423283  0.2874843404253566   T   T   T
  0.3477647625634368  0.9651724575187178  0.4353866101443938   T   T   T
  0.6078799960000012  0.7397199870000009  0.0843300000000013   F   F   F
  0.6115728308023999  0.7480321825712747  0.2198404121625564   T   T   T
  0.6056807731468735  0.7488274961953443  0.3563765233834263   T   T   T
  0.5963038186283793  0.7392883611107632  0.5083736913148449   T   T   T
  0.8578799960000012  0.9897199870000009  0.0236799999999988   F   F   F
  0.8576721702294308  0.9967072546056729  0.1515541728198847   T   T   T
  0.8627368985288534 -0.0005073500873674  0.2893452452239684   T   T   T
  0.8502993360602343  0.0124404558460393  0.4183324519693420   T   T   T
  0.1078799960000012  0.3921200039999988  0.0000000000000000   F   F   F
  0.1070977450903605  0.3951717379462696  0.1270992085199390   T   T   T
  0.1067719846560708  0.4000679061491063  0.2620522773352311   T   T   T
  0.1048487749351108  0.3960744850883061  0.3971284450531829   T   T   T
  0.1078799960000012  0.0873199999999983  0.0473599990000011   F   F   F
  0.1067054553292423  0.1021787282090194  0.1774564444806492   T   T   T
  0.1052571742815073  0.0991565196829613  0.3134714512681155   T   T   T
  0.0944508469396191  0.0822136966546863  0.4525739028963972   T   T   T
  0.3578799960000012  0.3373199999999983  0.0606499980000024   F   F   F
  0.3569726861243741  0.3504334659192261  0.1945185230972530   T   T   T
  0.3556871174213333  0.3513544151672759  0.3292359918924483   T   T   T
  0.3583802255088919  0.3291864561905029  0.4623854645789764   T   T   T
  0.3578799960000012  0.1421200039999988  0.1080100009999967   F   F   F
  0.3564315307145633  0.1473412922971699  0.2459371536344401   T   T   T
  0.3555802310829529  0.1509156128130292  0.3803610388824055   T   T   T
  0.3522992255157181  0.1229676141021225  0.5169875135041684   T   T   T
  0.6078799960000012  0.3921200039999988  0.0000000000000000   F   F   F
  0.6077283237382114  0.3950151257029507  0.1270926662746580   T   T   T
  0.6054968390474751  0.4002432995771114  0.2620046360056846   T   T   T
  0.6093587633737764  0.3954006798420713  0.3975236503017602   T   T   T
  0.6078799960000012  0.0873199999999983  0.0473599990000011   F   F   F
  0.6076369788669044  0.1022159226777939  0.1774473786689415   T   T   T
  0.6066062286109052  0.0996732468132447  0.3133526399317785   T   T   T
  0.6082654966368749  0.0784974418923641  0.4531895485682910   T   T   T
  0.8578799960000012  0.3373199999999983  0.0606499980000024   F   F   F
  0.8571550575307222  0.3507546694634578  0.1946279135576616   T   T   T
  0.8556751729572155  0.3503927558549860  0.3293207892878024   T   T   T
  0.8528162194248814  0.3281303526886989  0.4621198023473099   T   T   T
  0.8578799960000012  0.1421200039999988  0.1080100009999967   F   F   F
  0.8562730333493271  0.1473971471162215  0.2458861403858295   T   T   T
  0.8534895915852895  0.1467255753930404  0.3806240734979104   T   T   T
  0.8574865994111917  0.1283570250175032  0.5189089447345374   T   T   T
  0.1078799960000012  0.8921200039999988  0.0000000000000000   F   F   F
  0.1069334019697599  0.8956804738669389  0.1270850136829056   T   T   T
  0.1062432928652506  0.8958460178694670  0.2627662460140486   T   T   T
  0.0996337042162676  0.8880424355004665  0.4023762770133881   T   T   T
  0.1078799960000012  0.5873200300000008  0.0473599990000011   F   F   F
  0.1076599855100746  0.6018773605204244  0.1773051178768068   T   T   T
  0.1064531466370372  0.6024858149536849  0.3139556175036813   T   T   T
  0.1105727026659326  0.5796332877271377  0.4530565507554419   T   T   T
  0.3578799960000012  0.8373200300000008  0.0606499980000024   F   F   F
  0.3566569435897727  0.8519673271391608  0.1944614489216016   T   T   T
  0.3567378925330754  0.8517792878082229  0.3320974858633005   T   T   T
  0.3267504215787421  0.8311756099953834  0.4745519676352612   T   T   T
  0.3578799960000012  0.6421200039999988  0.1080100009999967   F   F   F
  0.3560930605125144  0.6488098442837109  0.2453685391762446   T   T   T
  0.3538747153346519  0.6450564666383721  0.3828609591430249   T   T   T
  0.3503014683397109  0.6431947410430146  0.5330548342910597   T   T   T
  0.6078799960000012  0.8921200039999988  0.0000000000000000   F   F   F
  0.6077697671114256  0.8956229805641406  0.1271167178255966   T   T   T
  0.6053823448166656  0.8958222770732336  0.2625896600830032   T   T   T
  0.6036259062267368  0.8859907906710880  0.4029123762591095   T   T   T
  0.6078799960000012  0.5873200300000008  0.0473599990000011   F   F   F
  0.6066337477296336  0.6016912163835133  0.1773048731769391   T   T   T
  0.6049950811066919  0.6019639423676171  0.3141308105253635   T   T   T
  0.6089403357637415  0.5923364389030539  0.4513526613599784   T   T   T
  0.8578799960000012  0.8373200300000008  0.0606499980000024   F   F   F
  0.8572140258190029  0.8519229548811112  0.1944823040936646   T   T   T
  0.8543801641301841  0.8524512230304152  0.3322975635414233   T   T   T
  0.8578799960000012  0.6421200039999988  0.1080100009999967   F   F   F
  0.8564513234716227  0.6492589031992843  0.2452012490006674   T   T   T
  0.8567955633227338  0.6448706423490090  0.3826592231079769   T   T   T
  0.8677699551964675  0.6458575746711034  0.5206188811512344   T   T   T
  0.3564057734648026  0.3504498680066795  0.5237188646056364   T   T   T
  0.6632649634867722  0.8999290664472264  0.5273506850492740   T   T   T
  0.8587604732523613  0.3576257001274998  0.5226736907824369   T   T   T
 
  0.00000000E+00  0.00000000E+00  0.00000000E+00
  0.00000000E+00  0.00000000E+00  0.00000000E+00
  0.00000000E+00  0.00000000E+00  0.00000000E+00
  0.00000000E+00  0.00000000E+00  0.00000000E+00
  0.00000000E+00  0.00000000E+00  0.00000000E+00
  0.00000000E+00  0.00000000E+00  0.00000000E+00
  0.00000000E+00  0.00000000E+00  0.00000000E+00
  0.00000000E+00  0.00000000E+00  0.00000000E+00
  0.00000000E+00  0.00000000E+00  0.00000000E+00
  0.00000000E+00  0.00000000E+00  0.00000000E+00
  0.00000000E+00  0.00000000E+00  0.00000000E+00
  0.00000000E+00  0.00000000E+00  0.00000000E+00
  0.00000000E+00  0.00000000E+00  0.00000000E+00
  0.00000000E+00  0.00000000E+00  0.00000000E+00
  0.00000000E+00  0.00000000E+00  0.00000000E+00
  0.00000000E+00  0.00000000E+00  0.00000000E+00
  0.00000000E+00  0.00000000E+00  0.00000000E+00
  0.00000000E+00  0.00000000E+00  0.00000000E+00
  0.00000000E+00  0.00000000E+00  0.00000000E+00
  0.00000000E+00  0.00000000E+00  0.00000000E+00
  0.00000000E+00  0.00000000E+00  0.00000000E+00
  0.00000000E+00  0.00000000E+00  0.00000000E+00
  0.00000000E+00  0.00000000E+00  0.00000000E+00
  0.00000000E+00  0.00000000E+00  0.00000000E+00
  0.00000000E+00  0.00000000E+00  0.00000000E+00
  0.00000000E+00  0.00000000E+00  0.00000000E+00
  0.00000000E+00  0.00000000E+00  0.00000000E+00
  0.00000000E+00  0.00000000E+00  0.00000000E+00
  0.00000000E+00  0.00000000E+00  0.00000000E+00
  0.00000000E+00  0.00000000E+00  0.00000000E+00
  0.00000000E+00  0.00000000E+00  0.00000000E+00
  0.00000000E+00  0.00000000E+00  0.00000000E+00
  0.00000000E+00  0.00000000E+00  0.00000000E+00
  0.00000000E+00  0.00000000E+00  0.00000000E+00
  0.00000000E+00  0.00000000E+00  0.00000000E+00
  0.00000000E+00  0.00000000E+00  0.00000000E+00
  0.00000000E+00  0.00000000E+00  0.00000000E+00
  0.00000000E+00  0.00000000E+00  0.00000000E+00
  0.00000000E+00  0.00000000E+00  0.00000000E+00
  0.00000000E+00  0.00000000E+00  0.00000000E+00
  0.00000000E+00  0.00000000E+00  0.00000000E+00
  0.00000000E+00  0.00000000E+00  0.00000000E+00
  0.00000000E+00  0.00000000E+00  0.00000000E+00
  0.00000000E+00  0.00000000E+00  0.00000000E+00
  0.00000000E+00  0.00000000E+00  0.00000000E+00
  0.00000000E+00  0.00000000E+00  0.00000000E+00
  0.00000000E+00  0.00000000E+00  0.00000000E+00
  0.00000000E+00  0.00000000E+00  0.00000000E+00
  0.00000000E+00  0.00000000E+00  0.00000000E+00
  0.00000000E+00  0.00000000E+00  0.00000000E+00
  0.00000000E+00  0.00000000E+00  0.00000000E+00
  0.00000000E+00  0.00000000E+00  0.00000000E+00
  0.00000000E+00  0.00000000E+00  0.00000000E+00
  0.00000000E+00  0.00000000E+00  0.00000000E+00
  0.00000000E+00  0.00000000E+00  0.00000000E+00
  0.00000000E+00  0.00000000E+00  0.00000000E+00
  0.00000000E+00  0.00000000E+00  0.00000000E+00
  0.00000000E+00  0.00000000E+00  0.00000000E+00
  0.00000000E+00  0.00000000E+00  0.00000000E+00
  0.00000000E+00  0.00000000E+00  0.00000000E+00
  0.00000000E+00  0.00000000E+00  0.00000000E+00
  0.00000000E+00  0.00000000E+00  0.00000000E+00
  0.00000000E+00  0.00000000E+00  0.00000000E+00
  0.00000000E+00  0.00000000E+00  0.00000000E+00
  0.00000000E+00  0.00000000E+00  0.00000000E+00
  0.00000000E+00  0.00000000E+00  0.00000000E+00
  0.00000000E+00  0.00000000E+00  0.00000000E+00
  0.00000000E+00  0.00000000E+00  0.00000000E+00
  0.00000000E+00  0.00000000E+00  0.00000000E+00
  0.00000000E+00  0.00000000E+00  0.00000000E+00
  0.00000000E+00  0.00000000E+00  0.00000000E+00
  0.00000000E+00  0.00000000E+00  0.00000000E+00
  0.00000000E+00  0.00000000E+00  0.00000000E+00
  0.00000000E+00  0.00000000E+00  0.00000000E+00
  0.00000000E+00  0.00000000E+00  0.00000000E+00
  0.00000000E+00  0.00000000E+00  0.00000000E+00
  0.00000000E+00  0.00000000E+00  0.00000000E+00
  0.00000000E+00  0.00000000E+00  0.00000000E+00
  0.00000000E+00  0.00000000E+00  0.00000000E+00
  0.00000000E+00  0.00000000E+00  0.00000000E+00
  0.00000000E+00  0.00000000E+00  0.00000000E+00
  0.00000000E+00  0.00000000E+00  0.00000000E+00
  0.00000000E+00  0.00000000E+00  0.00000000E+00
  0.00000000E+00  0.00000000E+00  0.00000000E+00
  0.00000000E+00  0.00000000E+00  0.00000000E+00
  0.00000000E+00  0.00000000E+00  0.00000000E+00
  0.00000000E+00  0.00000000E+00  0.00000000E+00
  0.00000000E+00  0.00000000E+00  0.00000000E+00
  0.00000000E+00  0.00000000E+00  0.00000000E+00
  0.00000000E+00  0.00000000E+00  0.00000000E+00
  0.00000000E+00  0.00000000E+00  0.00000000E+00
  0.00000000E+00  0.00000000E+00  0.00000000E+00
  0.00000000E+00  0.00000000E+00  0.00000000E+00
  0.00000000E+00  0.00000000E+00  0.00000000E+00
  0.00000000E+00  0.00000000E+00  0.00000000E+00
  0.00000000E+00  0.00000000E+00  0.00000000E+00
  0.00000000E+00  0.00000000E+00  0.00000000E+00
  0.00000000E+00  0.00000000E+00  0.00000000E+00
