CONTCAR010
1.0
       11.7658996582         0.0000000000         0.0000000000
        0.0000000000         9.1541004181         0.0000000000
        0.0000000000         0.0244533946        31.1362895309
   Ti    O    H
   64  129    1
Direct
     0.000000000         0.402399987         0.097159997
     0.000000000         0.403890014         0.248500004
     0.000000000         0.401410013         0.400260001
     0.000000000         0.394419998         0.551429987
     0.125000000         0.152400002         0.027279999
     0.125000000         0.154249996         0.173319995
     0.125000000         0.152779996         0.325360000
     0.125000000         0.148920000         0.478029996
     0.250000000         0.402399987         0.097159997
     0.250000000         0.403890014         0.248500004
     0.250000000         0.401410013         0.400260001
     0.250000000         0.394419998         0.551429987
     0.375000000         0.152400002         0.027279999
     0.375000000         0.154249996         0.173319995
     0.375000000         0.152779996         0.325360000
     0.375000000         0.148920000         0.478029996
     0.000000000         0.902400017         0.097159997
     0.000000000         0.903890014         0.248500004
     0.000000000         0.901409984         0.400260001
     0.000000000         0.894420028         0.551429987
     0.125000000         0.652400017         0.027279999
     0.125000000         0.654250026         0.173319995
     0.125000000         0.652779996         0.325360000
     0.125000000         0.648920000         0.478029996
     0.250000000         0.902400017         0.097159997
     0.250000000         0.903890014         0.248500004
     0.250000000         0.901409984         0.400260001
     0.250000000         0.894420028         0.551429987
     0.375000000         0.652400017         0.027279999
     0.375000000         0.654250026         0.173319995
     0.375000000         0.652779996         0.325360000
     0.375000000         0.648920000         0.478029996
     0.500000000         0.402399987         0.097159997
     0.500000000         0.403890014         0.248500004
     0.500000000         0.401410013         0.400260001
     0.500000000         0.394419998         0.551429987
     0.625000000         0.152400002         0.027279999
     0.625000000         0.154249996         0.173319995
     0.625000000         0.152779996         0.325360000
     0.625000000         0.148920000         0.478029996
     0.750000000         0.402399987         0.097159997
     0.750000000         0.403890014         0.248500004
     0.750000000         0.401410013         0.400260001
     0.750000000         0.394419998         0.551429987
     0.875000000         0.152400002         0.027279999
     0.875000000         0.154249996         0.173319995
     0.875000000         0.152779996         0.325360000
     0.875000000         0.148920000         0.478029996
     0.500000000         0.902400017         0.097159997
     0.500000000         0.903890014         0.248500004
     0.500000000         0.901409984         0.400260001
     0.500000000         0.894420028         0.551429987
     0.625000000         0.652400017         0.027279999
     0.625000000         0.654250026         0.173319995
     0.625000000         0.652779996         0.325360000
     0.625000000         0.648920000         0.478029996
     0.750000000         0.902400017         0.097159997
     0.750000000         0.903890014         0.248500004
     0.750000000         0.901409984         0.400260001
     0.750000000         0.894420028         0.551429987
     0.875000000         0.652400017         0.027279999
     0.875000000         0.654250026         0.173319995
     0.875000000         0.652779996         0.325360000
     0.875000000         0.648920000         0.478029996
     0.000000000         0.054800000         0.000000000
     0.000000000         0.056890000         0.144909993
     0.000000000         0.058019999         0.296429992
     0.000000000         0.058809999         0.449090004
     0.000000000         0.250000000         0.054559998
     0.000000000         0.261790007         0.201409996
     0.000000000         0.261180013         0.353599995
     0.000000000         0.266539991         0.505580008
     0.125000000         0.000000000         0.069880001
     0.125000000         0.011450000         0.220420003
     0.125000000         0.012070000         0.372280002
     0.125000000         0.026230000         0.526090026
     0.125000000         0.304800004         0.124439999
     0.125000000         0.308050007         0.277449995
     0.125000000         0.309899986         0.429439992
     0.125000000         0.339399993         0.583620012
     0.250000000         0.054800000         0.000000000
     0.250000000         0.056890000         0.144909993
     0.250000000         0.058019999         0.296429992
     0.250000000         0.058809999         0.449090004
     0.250000000         0.250000000         0.054559998
     0.250000000         0.261790007         0.201409996
     0.250000000         0.261180013         0.353599995
     0.250000000         0.266539991         0.505580008
     0.375000000         0.000000000         0.069880001
     0.375000000         0.011450000         0.220420003
     0.375000000         0.012070000         0.372280002
     0.375000000         0.026230000         0.526090026
     0.375000000         0.304800004         0.124439999
     0.375000000         0.308050007         0.277449995
     0.375000000         0.309899986         0.429439992
     0.375000000         0.339399993         0.583620012
     0.000000000         0.554799974         0.000000000
     0.000000000         0.556890011         0.144909993
     0.000000000         0.558019996         0.296429992
     0.000000000         0.558809996         0.449090004
     0.000000000         0.750000000         0.054559998
     0.000000000         0.761789978         0.201409996
     0.000000000         0.761179984         0.353599995
     0.000000000         0.766539991         0.505580008
     0.125000000         0.500000000         0.069880001
     0.125000000         0.511449993         0.220420003
     0.125000000         0.512070000         0.372280002
     0.125000000         0.526229978         0.526090026
     0.125000000         0.804799974         0.124439999
     0.125000000         0.808049977         0.277449995
     0.125000000         0.809899986         0.429439992
     0.125000000         0.839399993         0.583620012
     0.250000000         0.554799974         0.000000000
     0.250000000         0.556890011         0.144909993
     0.250000000         0.558019996         0.296429992
     0.250000000         0.558809996         0.449090004
     0.250000000         0.750000000         0.054559998
     0.250000000         0.761789978         0.201409996
     0.250000000         0.761179984         0.353599995
     0.250000000         0.766539991         0.505580008
     0.375000000         0.500000000         0.069880001
     0.375000000         0.511449993         0.220420003
     0.375000000         0.512070000         0.372280002
     0.375000000         0.526229978         0.526090026
     0.375000000         0.804799974         0.124439999
     0.375000000         0.808049977         0.277449995
     0.375000000         0.809899986         0.429439992
     0.375000000         0.839399993         0.583620012
     0.500000000         0.054800000         0.000000000
     0.500000000         0.056890000         0.144909993
     0.500000000         0.058019999         0.296429992
     0.500000000         0.058809999         0.449090004
     0.500000000         0.250000000         0.054559998
     0.500000000         0.261790007         0.201409996
     0.500000000         0.261180013         0.353599995
     0.500000000         0.266539991         0.505580008
     0.625000000         0.000000000         0.069880001
     0.625000000         0.011450000         0.220420003
     0.625000000         0.012070000         0.372280002
     0.625000000         0.026230000         0.526090026
     0.625000000         0.304800004         0.124439999
     0.625000000         0.308050007         0.277449995
     0.625000000         0.309899986         0.429439992
     0.625000000         0.339399993         0.583620012
     0.750000000         0.054800000         0.000000000
     0.750000000         0.056890000         0.144909993
     0.750000000         0.058019999         0.296429992
     0.750000000         0.058809999         0.449090004
     0.750000000         0.250000000         0.054559998
     0.750000000         0.261790007         0.201409996
     0.750000000         0.261180013         0.353599995
     0.750000000         0.266539991         0.505580008
     0.875000000         0.000000000         0.069880001
     0.875000000         0.011450000         0.220420003
     0.875000000         0.012070000         0.372280002
     0.875000000         0.026230000         0.526090026
     0.875000000         0.304800004         0.124439999
     0.875000000         0.308050007         0.277449995
     0.875000000         0.309899986         0.429439992
     0.875000000         0.339399993         0.583620012
     0.500000000         0.554799974         0.000000000
     0.500000000         0.556890011         0.144909993
     0.500000000         0.558019996         0.296429992
     0.500000000         0.558809996         0.449090004
     0.500000000         0.750000000         0.054559998
     0.500000000         0.761789978         0.201409996
     0.500000000         0.761179984         0.353599995
     0.500000000         0.766539991         0.505580008
     0.625000000         0.500000000         0.069880001
     0.625000000         0.511449993         0.220420003
     0.625000000         0.512070000         0.372280002
     0.625000000         0.526229978         0.526090026
     0.625000000         0.804799974         0.124439999
     0.625000000         0.808049977         0.277449995
     0.625000000         0.809899986         0.429439992
     0.625000000         0.839399993         0.583620012
     0.750000000         0.554799974         0.000000000
     0.750000000         0.556890011         0.144909993
     0.750000000         0.558019996         0.296429992
     0.750000000         0.558809996         0.449090004
     0.750000000         0.750000000         0.054559998
     0.750000000         0.761789978         0.201409996
     0.750000000         0.761179984         0.353599995
     0.750000000         0.766539991         0.505580008
     0.875000000         0.500000000         0.069880001
     0.875000000         0.511449993         0.220420003
     0.875000000         0.512070000         0.372280002
     0.875000000         0.526229978         0.526090026
     0.875000000         0.804799974         0.124439999
     0.875000000         0.808049977         0.277449995
     0.875000000         0.809899986         0.429439992
     0.875000000         0.839399993         0.583620012
     0.739059985         0.570580006         0.586139977
     0.758350015         0.563310027         0.620970011
