TiO2_rutile\(0\1\0)                     
   1.00000000000000     
     5.8819216438223378   -0.0011028640125866    0.0037571636379763
    -0.0020515085709085    9.1379796479078212    0.0033821001791110
     0.0289512571842779    0.0263963403806158   34.9606637002960099
   Ti   O 
    32    66
Selective dynamics
Direct
  0.1078799960000012  0.2397200019999985  0.0843300000000013   F   F   F
  0.1077758858977304  0.2432983798268179  0.2193463801879677   T   T   T
  0.1085032073358975  0.2417250023762833  0.3548266706170731   T   T   T
  0.1049560458270801  0.2281307229556337  0.4921141804442958   T   T   T
  0.3578799960000012  0.4897199870000009  0.0236799999999988   F   F   F
  0.3574297460894357  0.4939454846077821  0.1520528959980503   T   T   T
  0.3553740865248443  0.4960215258677338  0.2872213119044498   T   T   T
  0.3539416283443723  0.4962610788626384  0.4217242628726586   T   T   T
  0.6078799960000012  0.2397200019999985  0.0843300000000013   F   F   F
  0.6047356905626426  0.2433016704497357  0.2193512745609968   T   T   T
  0.6006574105643286  0.2417788128925551  0.3548268051970558   T   T   T
  0.6018648046532227  0.2281504962373713  0.4921176200585980   T   T   T
  0.8578799960000012  0.4897199870000009  0.0236799999999988   F   F   F
  0.8574322522343608  0.4920380814722249  0.1523998312594207   T   T   T
  0.8553869312717748  0.4891025110347664  0.2882721829831564   T   T   T
  0.8539269861753238  0.4815168926178132  0.4255436125025214   T   T   T
  0.1078799960000012  0.7397199870000009  0.0843300000000013   F   F   F
  0.1047307508707838  0.7433033820080497  0.2193519465521346   T   T   T
  0.1006599162144798  0.7417775175824962  0.3548252041676151   T   T   T
  0.1018759943743918  0.7281529741865053  0.4921202953616066   T   T   T
  0.3578799960000012  0.9897199870000009  0.0236799999999988   F   F   F
  0.3574331549296567  0.9920375020270781  0.1523997769745210   T   T   T
  0.3553885438462409  0.9891071557315962  0.2882726604934518   T   T   T
  0.3539236399785732  0.9815110166597113  0.4255454238068187   T   T   T
  0.6078799960000012  0.7397199870000009  0.0843300000000013   F   F   F
  0.6077719236774706  0.7432982089018915  0.2193464702772773   T   T   T
  0.6085042718571435  0.7417224802134410  0.3548264095050754   T   T   T
  0.6049731531002558  0.7281303593366200  0.4921171745629530   T   T   T
  0.8578799960000012  0.9897199870000009  0.0236799999999988   F   F   F
  0.8574317659609645  0.9939446383716918  0.1520529846546216   T   T   T
  0.8553736756831978  0.9960223614980726  0.2872216443000989   T   T   T
  0.8539390911287612  0.9962514673452576  0.4217222488871885   T   T   T
  0.1078799960000012  0.3921200039999988  0.0000000000000000   F   F   F
  0.1073984865181218  0.3946699813242016  0.1272084799828750   T   T   T
  0.1058686248808773  0.3959057309587498  0.2621306687019000   T   T   T
  0.1017014629071629  0.3958625455009283  0.3976277667769235   T   T   T
  0.1078799960000012  0.0873199999999983  0.0473599990000011   F   F   F
  0.1065120823532224  0.1014979155744807  0.1770665652185310   T   T   T
  0.1048100496841695  0.0992679581755212  0.3130011975364318   T   T   T
  0.0976521913335114  0.0951312935546870  0.4496728764632242   T   T   T
  0.3578799960000012  0.3373199999999983  0.0606499980000024   F   F   F
  0.3566342469587233  0.3507084720749493  0.1944465687201292   T   T   T
  0.3550316298130122  0.3493049975940041  0.3297376072308917   T   T   T
  0.3536554104361661  0.3394681714111551  0.4618610743815337   T   T   T
  0.3578799960000012  0.1421200039999988  0.1080100009999967   F   F   F
  0.3560299026551436  0.1462130631889735  0.2449231957792156   T   T   T
  0.3544507185734425  0.1479260772662781  0.3808254557502511   T   T   T
  0.3531199658941507  0.1142967104335273  0.5122629187779179   T   T   T
  0.6078799960000012  0.3921200039999988  0.0000000000000000   F   F   F
  0.6073394208832456  0.3946757264551197  0.1272082533157135   T   T   T
  0.6056032287278545  0.3959028652723612  0.2621305262508112   T   T   T
  0.6067088062801453  0.3958726777698775  0.3976247920379400   T   T   T
  0.6078799960000012  0.0873199999999983  0.0473599990000011   F   F   F
  0.6073209010046249  0.1014992379901773  0.1770664575381018   T   T   T
  0.6057726658192959  0.0992743149156025  0.3129994346035387   T   T   T
  0.6099027938813951  0.0951162719650959  0.4496740277115256   T   T   T
  0.8578799960000012  0.3373199999999983  0.0606499980000024   F   F   F
  0.8566374504714461  0.3509112921840712  0.1944788594420984   T   T   T
  0.8550574729717251  0.3496292139307857  0.3296736789572758   T   T   T
  0.8536060013518374  0.3500658697199900  0.4659800985160988   T   T   T
  0.8578799960000012  0.1421200039999988  0.1080100009999967   F   F   F
  0.8560388063233828  0.1457206808305133  0.2450876869160105   T   T   T
  0.8544463875554098  0.1453101393258641  0.3806460303317483   T   T   T
  0.8530994729259764  0.1803778068659915  0.5210123511912546   T   T   T
  0.1078799960000012  0.8921200039999988  0.0000000000000000   F   F   F
  0.1073381265687935  0.8946743563265871  0.1272086648132435   T   T   T
  0.1056023945181585  0.8959038839783802  0.2621305547392929   T   T   T
  0.1067024035333540  0.8958654353595891  0.3976255023915269   T   T   T
  0.1078799960000012  0.5873200300000008  0.0473599990000011   F   F   F
  0.1073221018701735  0.6015001899701508  0.1770662533635729   T   T   T
  0.1057729847880914  0.5992724280219386  0.3129993609193510   T   T   T
  0.1099053894606545  0.5951219494899654  0.4496746103458425   T   T   T
  0.3578799960000012  0.8373200300000008  0.0606499980000024   F   F   F
  0.3566377674232227  0.8509090773005280  0.1944782905631432   T   T   T
  0.3550571003149262  0.8496272981366058  0.3296730988684878   T   T   T
  0.3536141712493482  0.8500569992430230  0.4659796643837025   T   T   T
  0.3578799960000012  0.6421200039999988  0.1080100009999967   F   F   F
  0.3560377767607592  0.6457224478450638  0.2450883920058364   T   T   T
  0.3544467373928343  0.6453155911907235  0.3806468158795981   T   T   T
  0.3531138873204509  0.6803922732635297  0.5210161755921843   T   T   T
  0.6078799960000012  0.8921200039999988  0.0000000000000000   F   F   F
  0.6074001045935346  0.8946705770000126  0.1272083516653327   T   T   T
  0.6058672043800890  0.8959074699448408  0.2621306884820214   T   T   T
  0.6017017553249809  0.8958544347827532  0.3976287793178321   T   T   T
  0.6078799960000012  0.5873200300000008  0.0473599990000011   F   F   F
  0.6065108867098872  0.6014980666010914  0.1770665909194631   T   T   T
  0.6048102991606209  0.5992657190212526  0.3130014771616161   T   T   T
  0.5976543464380091  0.5951357896338089  0.4496741464820934   T   T   T
  0.8578799960000012  0.8373200300000008  0.0606499980000024   F   F   F
  0.8566330022602019  0.8507101871944102  0.1944472728596344   T   T   T
  0.8550321857803493  0.8493092700380644  0.3297385743653004   T   T   T
  0.8536635035062839  0.8394727377438744  0.4618659673777232   T   T   T
  0.8578799960000012  0.6421200039999988  0.1080100009999967   F   F   F
  0.8560293241245447  0.6462092129385093  0.2449224224009129   T   T   T
  0.8544510885260730  0.6479235263447471  0.3808245887105812   T   T   T
  0.8531332878414062  0.6142906807423647  0.5122651423888692   T   T   T
  0.3532652718447995  0.3421320604061993  0.5226544502305200   T   T   T
  0.8532826313128037  0.8421230127256305  0.5226600067437307   T   T   T
 
  0.00000000E+00  0.00000000E+00  0.00000000E+00
  0.00000000E+00  0.00000000E+00  0.00000000E+00
  0.00000000E+00  0.00000000E+00  0.00000000E+00
  0.00000000E+00  0.00000000E+00  0.00000000E+00
  0.00000000E+00  0.00000000E+00  0.00000000E+00
  0.00000000E+00  0.00000000E+00  0.00000000E+00
  0.00000000E+00  0.00000000E+00  0.00000000E+00
  0.00000000E+00  0.00000000E+00  0.00000000E+00
  0.00000000E+00  0.00000000E+00  0.00000000E+00
  0.00000000E+00  0.00000000E+00  0.00000000E+00
  0.00000000E+00  0.00000000E+00  0.00000000E+00
  0.00000000E+00  0.00000000E+00  0.00000000E+00
  0.00000000E+00  0.00000000E+00  0.00000000E+00
  0.00000000E+00  0.00000000E+00  0.00000000E+00
  0.00000000E+00  0.00000000E+00  0.00000000E+00
  0.00000000E+00  0.00000000E+00  0.00000000E+00
  0.00000000E+00  0.00000000E+00  0.00000000E+00
  0.00000000E+00  0.00000000E+00  0.00000000E+00
  0.00000000E+00  0.00000000E+00  0.00000000E+00
  0.00000000E+00  0.00000000E+00  0.00000000E+00
  0.00000000E+00  0.00000000E+00  0.00000000E+00
  0.00000000E+00  0.00000000E+00  0.00000000E+00
  0.00000000E+00  0.00000000E+00  0.00000000E+00
  0.00000000E+00  0.00000000E+00  0.00000000E+00
  0.00000000E+00  0.00000000E+00  0.00000000E+00
  0.00000000E+00  0.00000000E+00  0.00000000E+00
  0.00000000E+00  0.00000000E+00  0.00000000E+00
  0.00000000E+00  0.00000000E+00  0.00000000E+00
  0.00000000E+00  0.00000000E+00  0.00000000E+00
  0.00000000E+00  0.00000000E+00  0.00000000E+00
  0.00000000E+00  0.00000000E+00  0.00000000E+00
  0.00000000E+00  0.00000000E+00  0.00000000E+00
  0.00000000E+00  0.00000000E+00  0.00000000E+00
  0.00000000E+00  0.00000000E+00  0.00000000E+00
  0.00000000E+00  0.00000000E+00  0.00000000E+00
  0.00000000E+00  0.00000000E+00  0.00000000E+00
  0.00000000E+00  0.00000000E+00  0.00000000E+00
  0.00000000E+00  0.00000000E+00  0.00000000E+00
  0.00000000E+00  0.00000000E+00  0.00000000E+00
  0.00000000E+00  0.00000000E+00  0.00000000E+00
  0.00000000E+00  0.00000000E+00  0.00000000E+00
  0.00000000E+00  0.00000000E+00  0.00000000E+00
  0.00000000E+00  0.00000000E+00  0.00000000E+00
  0.00000000E+00  0.00000000E+00  0.00000000E+00
  0.00000000E+00  0.00000000E+00  0.00000000E+00
  0.00000000E+00  0.00000000E+00  0.00000000E+00
  0.00000000E+00  0.00000000E+00  0.00000000E+00
  0.00000000E+00  0.00000000E+00  0.00000000E+00
  0.00000000E+00  0.00000000E+00  0.00000000E+00
  0.00000000E+00  0.00000000E+00  0.00000000E+00
  0.00000000E+00  0.00000000E+00  0.00000000E+00
  0.00000000E+00  0.00000000E+00  0.00000000E+00
  0.00000000E+00  0.00000000E+00  0.00000000E+00
  0.00000000E+00  0.00000000E+00  0.00000000E+00
  0.00000000E+00  0.00000000E+00  0.00000000E+00
  0.00000000E+00  0.00000000E+00  0.00000000E+00
  0.00000000E+00  0.00000000E+00  0.00000000E+00
  0.00000000E+00  0.00000000E+00  0.00000000E+00
  0.00000000E+00  0.00000000E+00  0.00000000E+00
  0.00000000E+00  0.00000000E+00  0.00000000E+00
  0.00000000E+00  0.00000000E+00  0.00000000E+00
  0.00000000E+00  0.00000000E+00  0.00000000E+00
  0.00000000E+00  0.00000000E+00  0.00000000E+00
  0.00000000E+00  0.00000000E+00  0.00000000E+00
  0.00000000E+00  0.00000000E+00  0.00000000E+00
  0.00000000E+00  0.00000000E+00  0.00000000E+00
  0.00000000E+00  0.00000000E+00  0.00000000E+00
  0.00000000E+00  0.00000000E+00  0.00000000E+00
  0.00000000E+00  0.00000000E+00  0.00000000E+00
  0.00000000E+00  0.00000000E+00  0.00000000E+00
  0.00000000E+00  0.00000000E+00  0.00000000E+00
  0.00000000E+00  0.00000000E+00  0.00000000E+00
  0.00000000E+00  0.00000000E+00  0.00000000E+00
  0.00000000E+00  0.00000000E+00  0.00000000E+00
  0.00000000E+00  0.00000000E+00  0.00000000E+00
  0.00000000E+00  0.00000000E+00  0.00000000E+00
  0.00000000E+00  0.00000000E+00  0.00000000E+00
  0.00000000E+00  0.00000000E+00  0.00000000E+00
  0.00000000E+00  0.00000000E+00  0.00000000E+00
  0.00000000E+00  0.00000000E+00  0.00000000E+00
  0.00000000E+00  0.00000000E+00  0.00000000E+00
  0.00000000E+00  0.00000000E+00  0.00000000E+00
  0.00000000E+00  0.00000000E+00  0.00000000E+00
  0.00000000E+00  0.00000000E+00  0.00000000E+00
  0.00000000E+00  0.00000000E+00  0.00000000E+00
  0.00000000E+00  0.00000000E+00  0.00000000E+00
  0.00000000E+00  0.00000000E+00  0.00000000E+00
  0.00000000E+00  0.00000000E+00  0.00000000E+00
  0.00000000E+00  0.00000000E+00  0.00000000E+00
  0.00000000E+00  0.00000000E+00  0.00000000E+00
  0.00000000E+00  0.00000000E+00  0.00000000E+00
  0.00000000E+00  0.00000000E+00  0.00000000E+00
  0.00000000E+00  0.00000000E+00  0.00000000E+00
  0.00000000E+00  0.00000000E+00  0.00000000E+00
  0.00000000E+00  0.00000000E+00  0.00000000E+00
  0.00000000E+00  0.00000000E+00  0.00000000E+00
  0.00000000E+00  0.00000000E+00  0.00000000E+00
  0.00000000E+00  0.00000000E+00  0.00000000E+00
