CONTCAR                                 
   1.00000000000000     
     5.9066800591355149    0.0008221178072623   -0.0046404045936408
    -0.0023817493244573    9.1448586628838129    0.0191907640385119
     0.0237910322703347    0.1125405014181456   34.3556984436977331
   Ti   O 
    32    66
Selective dynamics
Direct
  0.1078799960000012  0.2397200019999985  0.0843300000000013   F   F   F
  0.1068646193083569  0.2492890906831969  0.2211498669865902   T   T   T
  0.1072230372394714  0.2214476940289268  0.3538691813823475   T   T   T
  0.1049281018137150  0.2393323917885836  0.4976113884846131   T   T   T
  0.3578799960000012  0.4897199870000009  0.0236799999999988   F   F   F
  0.3570328494407096  0.4925720466663910  0.1515168650423286   T   T   T
  0.3526983893647821  0.4936068356138279  0.2914557054948733   T   T   T
  0.3426014606047602  0.4760902633732280  0.4196128091837424   T   T   T
  0.6078799960000012  0.2397200019999985  0.0843300000000013   F   F   F
  0.6068211226105674  0.2499058436360085  0.2210884350540004   T   T   T
  0.6079170078250169  0.2277858887205876  0.3555535670023280   T   T   T
  0.6072591001855445  0.2452524404391359  0.4982824963886875   T   T   T
  0.8578799960000012  0.4897199870000009  0.0236799999999988   F   F   F
  0.8577070198303089  0.4926359235384939  0.1515133367930412   T   T   T
  0.8525962483001177  0.4937299607481714  0.2914570266112417   T   T   T
  0.8752390635953885  0.4806706712995161  0.4213665610070815   T   T   T
  0.1078799960000012  0.7397199870000009  0.0843300000000013   F   F   F
  0.1054956738520897  0.7367483718807447  0.2197510922936362   T   T   T
  0.1071918655996764  0.7567705734200525  0.3595740220054572   T   T   T
  0.1030954992144391  0.7105839907963666  0.4932259474004743   T   T   T
  0.3578799960000012  0.9897199870000009  0.0236799999999988   F   F   F
  0.3559876550874542  0.9933491256400476  0.1531959382319398   T   T   T
  0.3585476272069247  0.9886657900247281  0.2859460249584137   T   T   T
  0.3588203815668272  0.9888100829254503  0.4319688860593147   T   T   T
  0.6078799960000012  0.7397199870000009  0.0843300000000013   F   F   F
  0.6055238593389309  0.7355711055174680  0.2194096202371983   T   T   T
  0.6073532957622378  0.7551527072195932  0.3597553641376008   T   T   T
  0.6038865243120538  0.7811158805004844  0.5117237570418335   T   T   T
  0.8578799960000012  0.9897199870000009  0.0236799999999988   F   F   F
  0.8558660330373695  0.9933383713053933  0.1531907599977684   T   T   T
  0.8556514378383153  0.9889530383228262  0.2860074902342097   T   T   T
  0.8567711578694227  0.9889537280869642  0.4318287769808326   T   T   T
  0.1078799960000012  0.3921200039999988  0.0000000000000000   F   F   F
  0.1075569082658822  0.3941248848525870  0.1271411844819532   T   T   T
  0.1084870705056256  0.3935137005493451  0.2629070846420569   T   T   T
  0.1035736219760498  0.3864621894113211  0.3963310167113706   T   T   T
  0.1078799960000012  0.0873199999999983  0.0473599990000011   F   F   F
  0.1078052845727185  0.0997088098931258  0.1780627753772439   T   T   T
  0.1078236021691427  0.0885882954338809  0.3131907936878489   T   T   T
  0.1076241326990706  0.1074794820231314  0.4513960702274674   T   T   T
  0.3578799960000012  0.3373199999999983  0.0606499980000024   F   F   F
  0.3574527039937824  0.3481190794831654  0.1949292849659647   T   T   T
  0.3581608227791717  0.3429193305520321  0.3307369287528611   T   T   T
  0.3752670824625683  0.3531352324512116  0.4649584623549264   T   T   T
  0.3578799960000012  0.1421200039999988  0.1080100009999967   F   F   F
  0.3577364066063866  0.1411908793138383  0.2463767770404592   T   T   T
  0.3573826381654575  0.1446575458266849  0.3822249438276871   T   T   T
  0.3558382685059483  0.1312670623671228  0.5171253124566755   T   T   T
  0.6078799960000012  0.3921200039999988  0.0000000000000000   F   F   F
  0.6076730878969400  0.3942256533106026  0.1271517246253543   T   T   T
  0.6073506779582067  0.3933493452245183  0.2629088904482432   T   T   T
  0.6125856940351215  0.3994595239437903  0.3999270197380940   T   T   T
  0.6078799960000012  0.0873199999999983  0.0473599990000011   F   F   F
  0.6078698237244649  0.0997433106038154  0.1780319205284484   T   T   T
  0.6070651708168420  0.0895119360780981  0.3140525194535616   T   T   T
  0.6084239504567029  0.1032905142418354  0.4521512601305432   T   T   T
  0.8578799960000012  0.3373199999999983  0.0606499980000024   F   F   F
  0.8576578253745639  0.3482124648848819  0.1949726832543589   T   T   T
  0.8568949811938457  0.3415804038124333  0.3303339653883071   T   T   T
  0.8473451017361643  0.3541725537931458  0.4655288105487276   T   T   T
  0.8578799960000012  0.1421200039999988  0.1080100009999967   F   F   F
  0.8574043047230102  0.1414250456088824  0.2464464264536990   T   T   T
  0.8577957682673153  0.1426703623535638  0.3818736274642814   T   T   T
  0.8592844355326518  0.1292538211554422  0.5170033673070171   T   T   T
  0.1078799960000012  0.8921200039999988  0.0000000000000000   F   F   F
  0.1077940002594889  0.8937825677875323  0.1273555989707809   T   T   T
  0.1071302076856621  0.8892408774976006  0.2629429095796046   T   T   T
  0.1087535200591733  0.8939370523574889  0.4010660906257691   T   T   T
  0.1078799960000012  0.5873200300000008  0.0473599990000011   F   F   F
  0.1076775864786487  0.5977687232129764  0.1771780301144151   T   T   T
  0.1066547705649544  0.5941168236498852  0.3163163495222610   T   T   T
  0.1177614158822442  0.5835353850859064  0.4489642356671281   T   T   T
  0.3578799960000012  0.8373200300000008  0.0606499980000024   F   F   F
  0.3579617874573207  0.8466233517960027  0.1950780741286535   T   T   T
  0.3550467080473147  0.8448101627317004  0.3322520337019605   T   T   T
  0.3576193669618181  0.8546079823104957  0.4707300816796263   T   T   T
  0.3578799960000012  0.6421200039999988  0.1080100009999967   F   F   F
  0.3571066935490630  0.6425847813521232  0.2460964086205264   T   T   T
  0.3654877128493760  0.6437227029116208  0.3855147756146838   T   T   T
  0.3410456242386165  0.6620199771550964  0.5226828766677255   T   T   T
  0.6078799960000012  0.8921200039999988  0.0000000000000000   F   F   F
  0.6077785976064601  0.8938174349067620  0.1273259815516194   T   T   T
  0.6076145717793170  0.8887224772824320  0.2630970980340046   T   T   T
  0.6071647342570557  0.8963708051346043  0.4008019464418161   T   T   T
  0.6078799960000012  0.5873200300000008  0.0473599990000011   F   F   F
  0.6075436308792770  0.5976119018008925  0.1772038163351769   T   T   T
  0.6077754598845557  0.5961073617255780  0.3155260692922091   T   T   T
  0.8578799960000012  0.8373200300000008  0.0606499980000024   F   F   F
  0.8571910730880224  0.8466174603017765  0.1950847696727797   T   T   T
  0.8601929331312759  0.8445996729585671  0.3322127274972393   T   T   T
  0.8605210645167433  0.8560992233887562  0.4709367716028942   T   T   T
  0.8578799960000012  0.6421200039999988  0.1080100009999967   F   F   F
  0.8575552818405294  0.6421741163161329  0.2459994199487544   T   T   T
  0.8508474408126139  0.6467661414428559  0.3865055757190671   T   T   T
  0.8537817634006643  0.6464478300235134  0.5175175747075390   T   T   T
  0.3509589235129610  0.3581424073383799  0.5272180086172110   T   T   T
  0.6246934069964271  0.9000432503480116  0.5483115486525098   T   T   T
  0.8566700160352656  0.3544346021734657  0.5285568021330219   T   T   T
 
  0.00000000E+00  0.00000000E+00  0.00000000E+00
  0.00000000E+00  0.00000000E+00  0.00000000E+00
  0.00000000E+00  0.00000000E+00  0.00000000E+00
  0.00000000E+00  0.00000000E+00  0.00000000E+00
  0.00000000E+00  0.00000000E+00  0.00000000E+00
  0.00000000E+00  0.00000000E+00  0.00000000E+00
  0.00000000E+00  0.00000000E+00  0.00000000E+00
  0.00000000E+00  0.00000000E+00  0.00000000E+00
  0.00000000E+00  0.00000000E+00  0.00000000E+00
  0.00000000E+00  0.00000000E+00  0.00000000E+00
  0.00000000E+00  0.00000000E+00  0.00000000E+00
  0.00000000E+00  0.00000000E+00  0.00000000E+00
  0.00000000E+00  0.00000000E+00  0.00000000E+00
  0.00000000E+00  0.00000000E+00  0.00000000E+00
  0.00000000E+00  0.00000000E+00  0.00000000E+00
  0.00000000E+00  0.00000000E+00  0.00000000E+00
  0.00000000E+00  0.00000000E+00  0.00000000E+00
  0.00000000E+00  0.00000000E+00  0.00000000E+00
  0.00000000E+00  0.00000000E+00  0.00000000E+00
  0.00000000E+00  0.00000000E+00  0.00000000E+00
  0.00000000E+00  0.00000000E+00  0.00000000E+00
  0.00000000E+00  0.00000000E+00  0.00000000E+00
  0.00000000E+00  0.00000000E+00  0.00000000E+00
  0.00000000E+00  0.00000000E+00  0.00000000E+00
  0.00000000E+00  0.00000000E+00  0.00000000E+00
  0.00000000E+00  0.00000000E+00  0.00000000E+00
  0.00000000E+00  0.00000000E+00  0.00000000E+00
  0.00000000E+00  0.00000000E+00  0.00000000E+00
  0.00000000E+00  0.00000000E+00  0.00000000E+00
  0.00000000E+00  0.00000000E+00  0.00000000E+00
  0.00000000E+00  0.00000000E+00  0.00000000E+00
  0.00000000E+00  0.00000000E+00  0.00000000E+00
  0.00000000E+00  0.00000000E+00  0.00000000E+00
  0.00000000E+00  0.00000000E+00  0.00000000E+00
  0.00000000E+00  0.00000000E+00  0.00000000E+00
  0.00000000E+00  0.00000000E+00  0.00000000E+00
  0.00000000E+00  0.00000000E+00  0.00000000E+00
  0.00000000E+00  0.00000000E+00  0.00000000E+00
  0.00000000E+00  0.00000000E+00  0.00000000E+00
  0.00000000E+00  0.00000000E+00  0.00000000E+00
  0.00000000E+00  0.00000000E+00  0.00000000E+00
  0.00000000E+00  0.00000000E+00  0.00000000E+00
  0.00000000E+00  0.00000000E+00  0.00000000E+00
  0.00000000E+00  0.00000000E+00  0.00000000E+00
  0.00000000E+00  0.00000000E+00  0.00000000E+00
  0.00000000E+00  0.00000000E+00  0.00000000E+00
  0.00000000E+00  0.00000000E+00  0.00000000E+00
  0.00000000E+00  0.00000000E+00  0.00000000E+00
  0.00000000E+00  0.00000000E+00  0.00000000E+00
  0.00000000E+00  0.00000000E+00  0.00000000E+00
  0.00000000E+00  0.00000000E+00  0.00000000E+00
  0.00000000E+00  0.00000000E+00  0.00000000E+00
  0.00000000E+00  0.00000000E+00  0.00000000E+00
  0.00000000E+00  0.00000000E+00  0.00000000E+00
  0.00000000E+00  0.00000000E+00  0.00000000E+00
  0.00000000E+00  0.00000000E+00  0.00000000E+00
  0.00000000E+00  0.00000000E+00  0.00000000E+00
  0.00000000E+00  0.00000000E+00  0.00000000E+00
  0.00000000E+00  0.00000000E+00  0.00000000E+00
  0.00000000E+00  0.00000000E+00  0.00000000E+00
  0.00000000E+00  0.00000000E+00  0.00000000E+00
  0.00000000E+00  0.00000000E+00  0.00000000E+00
  0.00000000E+00  0.00000000E+00  0.00000000E+00
  0.00000000E+00  0.00000000E+00  0.00000000E+00
  0.00000000E+00  0.00000000E+00  0.00000000E+00
  0.00000000E+00  0.00000000E+00  0.00000000E+00
  0.00000000E+00  0.00000000E+00  0.00000000E+00
  0.00000000E+00  0.00000000E+00  0.00000000E+00
  0.00000000E+00  0.00000000E+00  0.00000000E+00
  0.00000000E+00  0.00000000E+00  0.00000000E+00
  0.00000000E+00  0.00000000E+00  0.00000000E+00
  0.00000000E+00  0.00000000E+00  0.00000000E+00
  0.00000000E+00  0.00000000E+00  0.00000000E+00
  0.00000000E+00  0.00000000E+00  0.00000000E+00
  0.00000000E+00  0.00000000E+00  0.00000000E+00
  0.00000000E+00  0.00000000E+00  0.00000000E+00
  0.00000000E+00  0.00000000E+00  0.00000000E+00
  0.00000000E+00  0.00000000E+00  0.00000000E+00
  0.00000000E+00  0.00000000E+00  0.00000000E+00
  0.00000000E+00  0.00000000E+00  0.00000000E+00
  0.00000000E+00  0.00000000E+00  0.00000000E+00
  0.00000000E+00  0.00000000E+00  0.00000000E+00
  0.00000000E+00  0.00000000E+00  0.00000000E+00
  0.00000000E+00  0.00000000E+00  0.00000000E+00
  0.00000000E+00  0.00000000E+00  0.00000000E+00
  0.00000000E+00  0.00000000E+00  0.00000000E+00
  0.00000000E+00  0.00000000E+00  0.00000000E+00
  0.00000000E+00  0.00000000E+00  0.00000000E+00
  0.00000000E+00  0.00000000E+00  0.00000000E+00
  0.00000000E+00  0.00000000E+00  0.00000000E+00
  0.00000000E+00  0.00000000E+00  0.00000000E+00
  0.00000000E+00  0.00000000E+00  0.00000000E+00
  0.00000000E+00  0.00000000E+00  0.00000000E+00
  0.00000000E+00  0.00000000E+00  0.00000000E+00
  0.00000000E+00  0.00000000E+00  0.00000000E+00
  0.00000000E+00  0.00000000E+00  0.00000000E+00
  0.00000000E+00  0.00000000E+00  0.00000000E+00
  0.00000000E+00  0.00000000E+00  0.00000000E+00
