CONTCAR\(3)                             
   1.00000000000000     
     5.8994688376954434    0.0010246838306251    0.0008584566867192
    -0.0027776098277373    9.1546497595750136    0.0131047376031092
     0.0303440669105014   -0.2277904851319386   33.9707657337641464
   Ti   O    H 
    32    68     1
Selective dynamics
Direct
  0.1078799960000012  0.2397200019999985  0.0843300000000013   F   F   F
  0.1051903171313225  0.2546385409281344  0.2210876143000948   T   T   T
  0.1049523880442151  0.2405653937720860  0.3644813267052105   T   T   T
  0.1249820711034361  0.2336553069257769  0.5076208816758919   T   T   T
  0.3578799960000012  0.4897199870000009  0.0236799999999988   F   F   F
  0.3560262430124324  0.4988090672711785  0.1528114539156158   T   T   T
  0.3562691280186804  0.4859309498750957  0.2951793503355574   T   T   T
  0.3692388528624135  0.4997709018379861  0.4300688225653508   T   T   T
  0.6078799960000012  0.2397200019999985  0.0843300000000013   F   F   F
  0.6085752140278089  0.2540575136744587  0.2211707077751124   T   T   T
  0.6063113663225946  0.2336379235752346  0.3635076353403620   T   T   T
  0.5845015773177983  0.2342592818787666  0.5078870782996471   T   T   T
  0.8578799960000012  0.4897199870000009  0.0236799999999988   F   F   F
  0.8554300589836115  0.5002286349801740  0.1523240788478028   T   T   T
  0.8560528978797389  0.4890540452388336  0.2957900753728472   T   T   T
  0.8568265862635922  0.4576949284449686  0.4386625310939953   T   T   T
  0.1078799960000012  0.7397199870000009  0.0843300000000013   F   F   F
  0.1063721076559328  0.7418857768783832  0.2238828809678122   T   T   T
  0.1239971702887629  0.7621160383540642  0.3595806142510743   T   T   T
  0.1131651248667124  0.7159728152907338  0.5012674647727535   T   T   T
  0.3578799960000012  0.9897199870000009  0.0236799999999988   F   F   F
  0.3572775553360599  0.9917129327266830  0.1548059920090392   T   T   T
  0.3550102277687617  0.0115683012169863  0.2877105075951952   T   T   T
  0.3555586843925687  0.9835544837388669  0.4372192364297804   T   T   T
  0.6078799960000012  0.7397199870000009  0.0843300000000013   F   F   F
  0.6066119100386244  0.7432359843651235  0.2242182735893001   T   T   T
  0.5883862464658057  0.7633066956062386  0.3593804265814909   T   T   T
  0.6102736954680118  0.7424487152967034  0.5100400328206061   T   T   T
  0.8578799960000012  0.9897199870000009  0.0236799999999988   F   F   F
  0.8573244936979100  0.9914503963019086  0.1547213862171559   T   T   T
  0.8576542209853583  0.0056794081811966  0.2897019431363457   T   T   T
  0.8553994962062267  0.9796605037006132  0.4372160288415922   T   T   T
  0.1078799960000012  0.3921200039999988  0.0000000000000000   F   F   F
  0.1069686356493390  0.3965889977154756  0.1281995225128549   T   T   T
  0.1089027577523915  0.3977967084803462  0.2660037478783823   T   T   T
  0.0974483599572651  0.3950400716488643  0.4027660597138580   T   T   T
  0.1078799960000012  0.0873199999999983  0.0473599990000011   F   F   F
  0.1070830569210577  0.1045462855688604  0.1793633814626237   T   T   T
  0.1052993307181405  0.0950793879182156  0.3174187120053540   T   T   T
  0.1058877472748042  0.0917419279640825  0.4565395543848731   T   T   T
  0.3578799960000012  0.3373199999999983  0.0606499980000024   F   F   F
  0.3568058178585887  0.3536377889309304  0.1967492529401942   T   T   T
  0.3560266979564164  0.3438481669402452  0.3347955433606128   T   T   T
  0.3552954373656462  0.3362340640736388  0.4711921950820490   T   T   T
  0.3578799960000012  0.1421200039999988  0.1080100009999967   F   F   F
  0.3565456983119089  0.1503108133230302  0.2478376585883182   T   T   T
  0.3549064816680886  0.1385093617752689  0.3867930350243706   T   T   T
  0.3552047766770854  0.1021055321457551  0.5211898977074807   T   T   T
  0.6078799960000012  0.3921200039999988  0.0000000000000000   F   F   F
  0.6077994569530495  0.3965282415792758  0.1281802761591096   T   T   T
  0.6034661792652123  0.3979484719722219  0.2659753305640181   T   T   T
  0.6119049985819542  0.3919930947045325  0.4032362324144481   T   T   T
  0.6078799960000012  0.0873199999999983  0.0473599990000011   F   F   F
  0.6070388203514027  0.1046307030836873  0.1793359909237541   T   T   T
  0.6062246060440153  0.0944687688160011  0.3176279145693309   T   T   T
  0.6046083158995145  0.0915717758861921  0.4566155557841534   T   T   T
  0.8578799960000012  0.3373199999999983  0.0606499980000024   F   F   F
  0.8568514428386440  0.3541686075842814  0.1969668853917408   T   T   T
  0.8549322404955236  0.3413650575779162  0.3341508574964187   T   T   T
  0.8550433992043898  0.3304635255903505  0.4773101469450450   T   T   T
  0.8578799960000012  0.1421200039999988  0.1080100009999967   F   F   F
  0.8561960451722544  0.1489931004839000  0.2485551496653862   T   T   T
  0.8555075613396360  0.1397365713205911  0.3868707625913267   T   T   T
  0.8538414639353011  0.1168589502381313  0.5273772046387367   T   T   T
  0.1078799960000012  0.8921200039999988  0.0000000000000000   F   F   F
  0.1073001683163625  0.8946924461678941  0.1283246318639523   T   T   T
  0.1063600450616672  0.8967487904168537  0.2658032984429081   T   T   T
  0.0982699482836847  0.8787069331817325  0.4051902406061965   T   T   T
  0.1078799960000012  0.5873200300000008  0.0473599990000011   F   F   F
  0.1073037437855545  0.6025809983432807  0.1789316349841913   T   T   T
  0.1000576746682594  0.5957788662284986  0.3210288976488805   T   T   T
  0.1001395437886592  0.5890044836733975  0.4548294925674039   T   T   T
  0.3578799960000012  0.8373200300000008  0.0606499980000024   F   F   F
  0.3568882824486478  0.8514910925658211  0.1968755931480115   T   T   T
  0.3554513181189538  0.8559356719371546  0.3344785188490194   T   T   T
  0.3550035893840638  0.8438932645608400  0.4760636609205132   T   T   T
  0.3578799960000012  0.6421200039999988  0.1080100009999967   F   F   F
  0.3562199778296085  0.6485044244960544  0.2496129594716547   T   T   T
  0.3562785863563342  0.6464020703997085  0.3857751824002509   T   T   T
  0.3496520395870740  0.6370328618503724  0.5252905681297118   T   T   T
  0.6078799960000012  0.8921200039999988  0.0000000000000000   F   F   F
  0.6075568734382959  0.8946911738683310  0.1283275459088013   T   T   T
  0.6059264131303748  0.8966006222663051  0.2658903584976822   T   T   T
  0.6122442649340571  0.8795894186037290  0.4050521042304547   T   T   T
  0.6078799960000012  0.5873200300000008  0.0473599990000011   F   F   F
  0.6070367543955915  0.6024525246679834  0.1789345808415158   T   T   T
  0.6116196170098169  0.5959682225007480  0.3210157912134430   T   T   T
  0.6153060755012095  0.5883673053985863  0.4540544677466948   T   T   T
  0.8578799960000012  0.8373200300000008  0.0606499980000024   F   F   F
  0.8568257292661464  0.8517603960403781  0.1969862323071076   T   T   T
  0.8564722168010473  0.8371140811030481  0.3372377799749544   T   T   T
  0.8568527476829729  0.8482000019696434  0.4771408929522148   T   T   T
  0.8578799960000012  0.6421200039999988  0.1080100009999967   F   F   F
  0.8565644904181301  0.6468528907987487  0.2489643946231315   T   T   T
  0.8566804737358757  0.6304443892104801  0.5256205583242923   T   T   T
  0.3538303240799682  0.3535264712381500  0.5350006736272214   T   T   T
  0.0847395133890491  0.8723406333660528  0.5500765645821249   T   T   T
  0.6508225599542860  0.8456581600773282  0.5543462302678247   T   T   T
  0.8558776900792051  0.2569743916754673  0.5481050042649667   T   T   T
  0.1689946102608663  0.8282384470862083  0.5849760758929387   T   T   T
  0.1369340895544455  0.9131937124352535  0.6022850668376712   T   T   T
 
  0.00000000E+00  0.00000000E+00  0.00000000E+00
  0.00000000E+00  0.00000000E+00  0.00000000E+00
  0.00000000E+00  0.00000000E+00  0.00000000E+00
  0.00000000E+00  0.00000000E+00  0.00000000E+00
  0.00000000E+00  0.00000000E+00  0.00000000E+00
  0.00000000E+00  0.00000000E+00  0.00000000E+00
  0.00000000E+00  0.00000000E+00  0.00000000E+00
  0.00000000E+00  0.00000000E+00  0.00000000E+00
  0.00000000E+00  0.00000000E+00  0.00000000E+00
  0.00000000E+00  0.00000000E+00  0.00000000E+00
  0.00000000E+00  0.00000000E+00  0.00000000E+00
  0.00000000E+00  0.00000000E+00  0.00000000E+00
  0.00000000E+00  0.00000000E+00  0.00000000E+00
  0.00000000E+00  0.00000000E+00  0.00000000E+00
  0.00000000E+00  0.00000000E+00  0.00000000E+00
  0.00000000E+00  0.00000000E+00  0.00000000E+00
  0.00000000E+00  0.00000000E+00  0.00000000E+00
  0.00000000E+00  0.00000000E+00  0.00000000E+00
  0.00000000E+00  0.00000000E+00  0.00000000E+00
  0.00000000E+00  0.00000000E+00  0.00000000E+00
  0.00000000E+00  0.00000000E+00  0.00000000E+00
  0.00000000E+00  0.00000000E+00  0.00000000E+00
  0.00000000E+00  0.00000000E+00  0.00000000E+00
  0.00000000E+00  0.00000000E+00  0.00000000E+00
  0.00000000E+00  0.00000000E+00  0.00000000E+00
  0.00000000E+00  0.00000000E+00  0.00000000E+00
  0.00000000E+00  0.00000000E+00  0.00000000E+00
  0.00000000E+00  0.00000000E+00  0.00000000E+00
  0.00000000E+00  0.00000000E+00  0.00000000E+00
  0.00000000E+00  0.00000000E+00  0.00000000E+00
  0.00000000E+00  0.00000000E+00  0.00000000E+00
  0.00000000E+00  0.00000000E+00  0.00000000E+00
  0.00000000E+00  0.00000000E+00  0.00000000E+00
  0.00000000E+00  0.00000000E+00  0.00000000E+00
  0.00000000E+00  0.00000000E+00  0.00000000E+00
  0.00000000E+00  0.00000000E+00  0.00000000E+00
  0.00000000E+00  0.00000000E+00  0.00000000E+00
  0.00000000E+00  0.00000000E+00  0.00000000E+00
  0.00000000E+00  0.00000000E+00  0.00000000E+00
  0.00000000E+00  0.00000000E+00  0.00000000E+00
  0.00000000E+00  0.00000000E+00  0.00000000E+00
  0.00000000E+00  0.00000000E+00  0.00000000E+00
  0.00000000E+00  0.00000000E+00  0.00000000E+00
  0.00000000E+00  0.00000000E+00  0.00000000E+00
  0.00000000E+00  0.00000000E+00  0.00000000E+00
  0.00000000E+00  0.00000000E+00  0.00000000E+00
  0.00000000E+00  0.00000000E+00  0.00000000E+00
  0.00000000E+00  0.00000000E+00  0.00000000E+00
  0.00000000E+00  0.00000000E+00  0.00000000E+00
  0.00000000E+00  0.00000000E+00  0.00000000E+00
  0.00000000E+00  0.00000000E+00  0.00000000E+00
  0.00000000E+00  0.00000000E+00  0.00000000E+00
  0.00000000E+00  0.00000000E+00  0.00000000E+00
  0.00000000E+00  0.00000000E+00  0.00000000E+00
  0.00000000E+00  0.00000000E+00  0.00000000E+00
  0.00000000E+00  0.00000000E+00  0.00000000E+00
  0.00000000E+00  0.00000000E+00  0.00000000E+00
  0.00000000E+00  0.00000000E+00  0.00000000E+00
  0.00000000E+00  0.00000000E+00  0.00000000E+00
  0.00000000E+00  0.00000000E+00  0.00000000E+00
  0.00000000E+00  0.00000000E+00  0.00000000E+00
  0.00000000E+00  0.00000000E+00  0.00000000E+00
  0.00000000E+00  0.00000000E+00  0.00000000E+00
  0.00000000E+00  0.00000000E+00  0.00000000E+00
  0.00000000E+00  0.00000000E+00  0.00000000E+00
  0.00000000E+00  0.00000000E+00  0.00000000E+00
  0.00000000E+00  0.00000000E+00  0.00000000E+00
  0.00000000E+00  0.00000000E+00  0.00000000E+00
  0.00000000E+00  0.00000000E+00  0.00000000E+00
  0.00000000E+00  0.00000000E+00  0.00000000E+00
  0.00000000E+00  0.00000000E+00  0.00000000E+00
  0.00000000E+00  0.00000000E+00  0.00000000E+00
  0.00000000E+00  0.00000000E+00  0.00000000E+00
  0.00000000E+00  0.00000000E+00  0.00000000E+00
  0.00000000E+00  0.00000000E+00  0.00000000E+00
  0.00000000E+00  0.00000000E+00  0.00000000E+00
  0.00000000E+00  0.00000000E+00  0.00000000E+00
  0.00000000E+00  0.00000000E+00  0.00000000E+00
  0.00000000E+00  0.00000000E+00  0.00000000E+00
  0.00000000E+00  0.00000000E+00  0.00000000E+00
  0.00000000E+00  0.00000000E+00  0.00000000E+00
  0.00000000E+00  0.00000000E+00  0.00000000E+00
  0.00000000E+00  0.00000000E+00  0.00000000E+00
  0.00000000E+00  0.00000000E+00  0.00000000E+00
  0.00000000E+00  0.00000000E+00  0.00000000E+00
  0.00000000E+00  0.00000000E+00  0.00000000E+00
  0.00000000E+00  0.00000000E+00  0.00000000E+00
  0.00000000E+00  0.00000000E+00  0.00000000E+00
  0.00000000E+00  0.00000000E+00  0.00000000E+00
  0.00000000E+00  0.00000000E+00  0.00000000E+00
  0.00000000E+00  0.00000000E+00  0.00000000E+00
  0.00000000E+00  0.00000000E+00  0.00000000E+00
  0.00000000E+00  0.00000000E+00  0.00000000E+00
  0.00000000E+00  0.00000000E+00  0.00000000E+00
  0.00000000E+00  0.00000000E+00  0.00000000E+00
  0.00000000E+00  0.00000000E+00  0.00000000E+00
  0.00000000E+00  0.00000000E+00  0.00000000E+00
  0.00000000E+00  0.00000000E+00  0.00000000E+00
  0.00000000E+00  0.00000000E+00  0.00000000E+00
  0.00000000E+00  0.00000000E+00  0.00000000E+00
  0.00000000E+00  0.00000000E+00  0.00000000E+00
