CONTCAR                                 
   1.00000000000000     
     5.8896850065690263    0.0015341703217889   -0.0003387959578204
    -0.0013077565725570    9.1647652990759365    0.0009530997082722
     0.0487017220788397    0.0409036032741013   33.9334661845505110
   Ti   O 
    32    66
Selective dynamics
Direct
  0.1078799960000012  0.2397200019999985  0.0843300000000013   F   F   F
  0.1076806478757710  0.2438243038706754  0.2227268591886462   T   T   T
  0.1081149478545551  0.2419731474716821  0.3617219569850560   T   T   T
  0.1044448475368371  0.2277964854856709  0.5027043942742110   T   T   T
  0.3578799960000012  0.4897199870000009  0.0236799999999988   F   F   F
  0.3572197760309632  0.4943870008778493  0.1537074268801777   T   T   T
  0.3552840538408097  0.4963375399634740  0.2923578114878128   T   T   T
  0.3535313762395055  0.4961012155592856  0.4304135623728435   T   T   T
  0.6078799960000012  0.2397200019999985  0.0843300000000013   F   F   F
  0.6045993206844397  0.2438188504536938  0.2227220248143126   T   T   T
  0.6002879199322952  0.2419629242998630  0.3617173640913117   T   T   T
  0.6013688965868653  0.2277858781984786  0.5027108675809766   T   T   T
  0.8578799960000012  0.4897199870000009  0.0236799999999988   F   F   F
  0.8572040561772978  0.4925557694401162  0.1540922689387732   T   T   T
  0.8552799436202400  0.4894688950756539  0.2934140335095807   T   T   T
  0.8534823874285874  0.4815566628071781  0.4343858773817181   T   T   T
  0.1078799960000012  0.7397199870000009  0.0843300000000013   F   F   F
  0.1046270999208126  0.7438755769245750  0.2227068962061210   T   T   T
  0.1002168898945485  0.7418041735994084  0.3617414016524054   T   T   T
  0.1012543305090668  0.7282986684143872  0.5026761861056851   T   T   T
  0.3578799960000012  0.9897199870000009  0.0236799999999988   F   F   F
  0.3572104345736870  0.9925938065753414  0.1540762076197298   T   T   T
  0.3552646989246416  0.9893827645845440  0.2934680829846120   T   T   T
  0.3534713576280345  0.9817522504872183  0.4342311530420629   T   T   T
  0.6078799960000012  0.7397199870000009  0.0843300000000013   F   F   F
  0.6076720596705102  0.7438800434317469  0.2227160651297654   T   T   T
  0.6081434163117628  0.7418074761806128  0.3617403021230786   T   T   T
  0.6042956842323164  0.7283437514791374  0.5026702046212915   T   T   T
  0.8578799960000012  0.9897199870000009  0.0236799999999988   F   F   F
  0.8572217032552230  0.9944263815774123  0.1537015049578452   T   T   T
  0.8552807552341545  0.9962251912030107  0.2923698505117444   T   T   T
  0.8535025252336338  0.9961865882462615  0.4303404293812518   T   T   T
  0.1078799960000012  0.3921200039999988  0.0000000000000000   F   F   F
  0.1072864527198997  0.3954882005769889  0.1283932207691404   T   T   T
  0.1057083854543352  0.3971882476140748  0.2664705696955435   T   T   T
  0.1012988800043294  0.3968196651147733  0.4055268854758180   T   T   T
  0.1078799960000012  0.0873199999999983  0.0473599990000011   F   F   F
  0.1062693957835937  0.1024997839159129  0.1793488707831367   T   T   T
  0.1045374243990848  0.0991105062523978  0.3189923627262631   T   T   T
  0.0970697686648877  0.0946496554947826  0.4592050272934324   T   T   T
  0.3578799960000012  0.3373199999999983  0.0606499980000024   F   F   F
  0.3563689819979883  0.3513698380653407  0.1971438997308536   T   T   T
  0.3546727810934531  0.3491379044373140  0.3358225344473816   T   T   T
  0.3532464112937284  0.3388846674014948  0.4715031696922628   T   T   T
  0.3578799960000012  0.1421200039999988  0.1080100009999967   F   F   F
  0.3558625309444935  0.1474638191797866  0.2490919508349296   T   T   T
  0.3541782249871979  0.1489965414719415  0.3885976145758010   T   T   T
  0.3528021943897824  0.1147281260121398  0.5235517694503182   T   T   T
  0.6078799960000012  0.3921200039999988  0.0000000000000000   F   F   F
  0.6072248838132881  0.3954899756804606  0.1283924024931127   T   T   T
  0.6053530582712680  0.3971994793362845  0.2664696986597124   T   T   T
  0.6064107956937573  0.3968141576643801  0.4055261098094786   T   T   T
  0.6078799960000012  0.0873199999999983  0.0473599990000011   F   F   F
  0.6071283003730668  0.1025061982635300  0.1793479099490283   T   T   T
  0.6054172877983803  0.0991248677028390  0.3189864308578276   T   T   T
  0.6096301019478861  0.0946437383972326  0.4592082601016712   T   T   T
  0.8578799960000012  0.3373199999999983  0.0606499980000024   F   F   F
  0.8563811183359968  0.3515974893641790  0.1971860562682419   T   T   T
  0.8547162151360475  0.3494369632926034  0.3357519995469770   T   T   T
  0.8578799960000012  0.1421200039999988  0.1080100009999967   F   F   F
  0.8558473150218971  0.1470133762604773  0.2492738540310456   T   T   T
  0.8541768604703535  0.1463734663092870  0.3883847540117358   T   T   T
  0.8527109350573787  0.1802352698589184  0.5324119538856489   T   T   T
  0.1078799960000012  0.8921200039999988  0.0000000000000000   F   F   F
  0.1072282191424774  0.8954971114684920  0.1283912837311139   T   T   T
  0.1053494286161850  0.8972191090919828  0.2664732563298551   T   T   T
  0.1064299107052529  0.8969165669203557  0.4054185315166718   T   T   T
  0.1078799960000012  0.5873200300000008  0.0473599990000011   F   F   F
  0.1071271369194740  0.6025167117683912  0.1793517100136595   T   T   T
  0.1054308691157685  0.5990968764766156  0.3189759616800422   T   T   T
  0.1095523515637383  0.5945775636690287  0.4593048118110720   T   T   T
  0.3578799960000012  0.8373200300000008  0.0606499980000024   F   F   F
  0.3563796423560913  0.8516101959036075  0.1971875967395310   T   T   T
  0.3547196547100356  0.8492714939812602  0.3357350935786058   T   T   T
  0.3531886049346588  0.8498691984015742  0.4756653316668793   T   T   T
  0.3578799960000012  0.6421200039999988  0.1080100009999967   F   F   F
  0.3558469518953694  0.6470352956145811  0.2492705124406827   T   T   T
  0.3541695396928947  0.6462532542288097  0.3884324095197605   T   T   T
  0.3526074049777674  0.6810949838996255  0.5324287498950768   T   T   T
  0.6078799960000012  0.8921200039999988  0.0000000000000000   F   F   F
  0.6072825720645461  0.8954945489479781  0.1283921354474071   T   T   T
  0.6057105693385313  0.8972081153526025  0.2664739051074682   T   T   T
  0.6013025846878078  0.8969184853135446  0.4054205483578630   T   T   T
  0.6078799960000012  0.5873200300000008  0.0473599990000011   F   F   F
  0.6062711868213095  0.6025099265755620  0.1793527003569876   T   T   T
  0.6045253634455595  0.5990831318658841  0.3189813184622908   T   T   T
  0.5970721387847339  0.5945734059497229  0.4593015989745098   T   T   T
  0.8578799960000012  0.8373200300000008  0.0606499980000024   F   F   F
  0.8563691251771081  0.8513830472002921  0.1971445294644024   T   T   T
  0.8546705907467678  0.8489763038880290  0.3358076415803419   T   T   T
  0.8532408730906786  0.8389584531956700  0.4713574570203424   T   T   T
  0.8578799960000012  0.6421200039999988  0.1080100009999967   F   F   F
  0.8558637173397851  0.6474781509732467  0.2490936619972255   T   T   T
  0.8541702810095159  0.6488929708189490  0.3886198550330187   T   T   T
  0.8527159962190985  0.6157885337492929  0.5236731482206555   T   T   T
  0.3526232324502154  0.3417843555403433  0.5340976584570131   T   T   T
  0.8523948648437975  0.8430369112354038  0.5339082875528210   T   T   T
  0.8532067777004042  0.3497283880971679  0.4758066175477487   T   T   T
 
  0.00000000E+00  0.00000000E+00  0.00000000E+00
  0.00000000E+00  0.00000000E+00  0.00000000E+00
  0.00000000E+00  0.00000000E+00  0.00000000E+00
  0.00000000E+00  0.00000000E+00  0.00000000E+00
  0.00000000E+00  0.00000000E+00  0.00000000E+00
  0.00000000E+00  0.00000000E+00  0.00000000E+00
  0.00000000E+00  0.00000000E+00  0.00000000E+00
  0.00000000E+00  0.00000000E+00  0.00000000E+00
  0.00000000E+00  0.00000000E+00  0.00000000E+00
  0.00000000E+00  0.00000000E+00  0.00000000E+00
  0.00000000E+00  0.00000000E+00  0.00000000E+00
  0.00000000E+00  0.00000000E+00  0.00000000E+00
  0.00000000E+00  0.00000000E+00  0.00000000E+00
  0.00000000E+00  0.00000000E+00  0.00000000E+00
  0.00000000E+00  0.00000000E+00  0.00000000E+00
  0.00000000E+00  0.00000000E+00  0.00000000E+00
  0.00000000E+00  0.00000000E+00  0.00000000E+00
  0.00000000E+00  0.00000000E+00  0.00000000E+00
  0.00000000E+00  0.00000000E+00  0.00000000E+00
  0.00000000E+00  0.00000000E+00  0.00000000E+00
  0.00000000E+00  0.00000000E+00  0.00000000E+00
  0.00000000E+00  0.00000000E+00  0.00000000E+00
  0.00000000E+00  0.00000000E+00  0.00000000E+00
  0.00000000E+00  0.00000000E+00  0.00000000E+00
  0.00000000E+00  0.00000000E+00  0.00000000E+00
  0.00000000E+00  0.00000000E+00  0.00000000E+00
  0.00000000E+00  0.00000000E+00  0.00000000E+00
  0.00000000E+00  0.00000000E+00  0.00000000E+00
  0.00000000E+00  0.00000000E+00  0.00000000E+00
  0.00000000E+00  0.00000000E+00  0.00000000E+00
  0.00000000E+00  0.00000000E+00  0.00000000E+00
  0.00000000E+00  0.00000000E+00  0.00000000E+00
  0.00000000E+00  0.00000000E+00  0.00000000E+00
  0.00000000E+00  0.00000000E+00  0.00000000E+00
  0.00000000E+00  0.00000000E+00  0.00000000E+00
  0.00000000E+00  0.00000000E+00  0.00000000E+00
  0.00000000E+00  0.00000000E+00  0.00000000E+00
  0.00000000E+00  0.00000000E+00  0.00000000E+00
  0.00000000E+00  0.00000000E+00  0.00000000E+00
  0.00000000E+00  0.00000000E+00  0.00000000E+00
  0.00000000E+00  0.00000000E+00  0.00000000E+00
  0.00000000E+00  0.00000000E+00  0.00000000E+00
  0.00000000E+00  0.00000000E+00  0.00000000E+00
  0.00000000E+00  0.00000000E+00  0.00000000E+00
  0.00000000E+00  0.00000000E+00  0.00000000E+00
  0.00000000E+00  0.00000000E+00  0.00000000E+00
  0.00000000E+00  0.00000000E+00  0.00000000E+00
  0.00000000E+00  0.00000000E+00  0.00000000E+00
  0.00000000E+00  0.00000000E+00  0.00000000E+00
  0.00000000E+00  0.00000000E+00  0.00000000E+00
  0.00000000E+00  0.00000000E+00  0.00000000E+00
  0.00000000E+00  0.00000000E+00  0.00000000E+00
  0.00000000E+00  0.00000000E+00  0.00000000E+00
  0.00000000E+00  0.00000000E+00  0.00000000E+00
  0.00000000E+00  0.00000000E+00  0.00000000E+00
  0.00000000E+00  0.00000000E+00  0.00000000E+00
  0.00000000E+00  0.00000000E+00  0.00000000E+00
  0.00000000E+00  0.00000000E+00  0.00000000E+00
  0.00000000E+00  0.00000000E+00  0.00000000E+00
  0.00000000E+00  0.00000000E+00  0.00000000E+00
  0.00000000E+00  0.00000000E+00  0.00000000E+00
  0.00000000E+00  0.00000000E+00  0.00000000E+00
  0.00000000E+00  0.00000000E+00  0.00000000E+00
  0.00000000E+00  0.00000000E+00  0.00000000E+00
  0.00000000E+00  0.00000000E+00  0.00000000E+00
  0.00000000E+00  0.00000000E+00  0.00000000E+00
  0.00000000E+00  0.00000000E+00  0.00000000E+00
  0.00000000E+00  0.00000000E+00  0.00000000E+00
  0.00000000E+00  0.00000000E+00  0.00000000E+00
  0.00000000E+00  0.00000000E+00  0.00000000E+00
  0.00000000E+00  0.00000000E+00  0.00000000E+00
  0.00000000E+00  0.00000000E+00  0.00000000E+00
  0.00000000E+00  0.00000000E+00  0.00000000E+00
  0.00000000E+00  0.00000000E+00  0.00000000E+00
  0.00000000E+00  0.00000000E+00  0.00000000E+00
  0.00000000E+00  0.00000000E+00  0.00000000E+00
  0.00000000E+00  0.00000000E+00  0.00000000E+00
  0.00000000E+00  0.00000000E+00  0.00000000E+00
  0.00000000E+00  0.00000000E+00  0.00000000E+00
  0.00000000E+00  0.00000000E+00  0.00000000E+00
  0.00000000E+00  0.00000000E+00  0.00000000E+00
  0.00000000E+00  0.00000000E+00  0.00000000E+00
  0.00000000E+00  0.00000000E+00  0.00000000E+00
  0.00000000E+00  0.00000000E+00  0.00000000E+00
  0.00000000E+00  0.00000000E+00  0.00000000E+00
  0.00000000E+00  0.00000000E+00  0.00000000E+00
  0.00000000E+00  0.00000000E+00  0.00000000E+00
  0.00000000E+00  0.00000000E+00  0.00000000E+00
  0.00000000E+00  0.00000000E+00  0.00000000E+00
  0.00000000E+00  0.00000000E+00  0.00000000E+00
  0.00000000E+00  0.00000000E+00  0.00000000E+00
  0.00000000E+00  0.00000000E+00  0.00000000E+00
  0.00000000E+00  0.00000000E+00  0.00000000E+00
  0.00000000E+00  0.00000000E+00  0.00000000E+00
  0.00000000E+00  0.00000000E+00  0.00000000E+00
  0.00000000E+00  0.00000000E+00  0.00000000E+00
  0.00000000E+00  0.00000000E+00  0.00000000E+00
  0.00000000E+00  0.00000000E+00  0.00000000E+00
