CONTCAR                                 
   1.00000000000000     
     5.8947407525619608   -0.0039559129896512    0.0021722153348433
    -0.0011121706352601    9.1732033468463179   -0.0092017118034385
     0.0477413773421373   -0.1798772808248223   34.4045916546089288
   Ti   O    H 
    32    68     1
Selective dynamics
Direct
  0.1078799960000012  0.2397200019999985  0.0843300000000013   F   F   F
  0.1063612832300597  0.2477748729000901  0.2198934448564216   T   T   T
  0.1180381780662814  0.2564869056887413  0.3561854381594704   T   T   T
  0.1028338623916290  0.2350548151187041  0.4952085772174039   T   T   T
  0.3578799960000012  0.4897199870000009  0.0236799999999988   F   F   F
  0.3582568007063124  0.4953858118597805  0.1525523536306754   T   T   T
  0.3567975877611139  0.5065303548799204  0.2858116501883890   T   T   T
  0.3673379820783801  0.5029611876046972  0.4260373552074045   T   T   T
  0.6078799960000012  0.2397200019999985  0.0843300000000013   F   F   F
  0.6065913709855837  0.2466206172133953  0.2201322173655157   T   T   T
  0.5925200477664968  0.2515270891398483  0.3548428077313726   T   T   T
  0.6064607958432747  0.2317168213328362  0.4954960899407196   T   T   T
  0.8578799960000012  0.4897199870000009  0.0236799999999988   F   F   F
  0.8573620119195098  0.4938348218507796  0.1521296300592931   T   T   T
  0.8565840539488837  0.4949574585467120  0.2897236797749543   T   T   T
  0.8584963785382047  0.4970697342603006  0.4242221117795853   T   T   T
  0.1078799960000012  0.7397199870000009  0.0843300000000013   F   F   F
  0.1030338801403805  0.7476848281550460  0.2193728733766019   T   T   T
  0.1059010986548427  0.7466882801865518  0.3570993478938994   T   T   T
  0.1147716140783524  0.6955128980437867  0.5035379610202374   T   T   T
  0.3578799960000012  0.9897199870000009  0.0236799999999988   F   F   F
  0.3574058034173621  0.9940512051659884  0.1527286158761038   T   T   T
  0.3572390709626842  0.9948022803363540  0.2875970734394833   T   T   T
  0.3508546823523209  0.9622175723314196  0.4358453940796629   T   T   T
  0.6078799960000012  0.7397199870000009  0.0843300000000013   F   F   F
  0.6111406064586619  0.7494815765553411  0.2198195071607768   T   T   T
  0.6049868120194546  0.7503238185186950  0.3564178906205377   T   T   T
  0.5894303493503127  0.7185360482628387  0.5069904413672673   T   T   T
  0.8578799960000012  0.9897199870000009  0.0236799999999988   F   F   F
  0.8574652808088395  0.9970601561590891  0.1515670608483869   T   T   T
  0.8604036604007105  0.0025554262526610  0.2894691487847439   T   T   T
  0.8526565301150668  0.0152037471167234  0.4181024980637312   T   T   T
  0.1078799960000012  0.3921200039999988  0.0000000000000000   F   F   F
  0.1073330409676572  0.3955003323747012  0.1270621009046876   T   T   T
  0.1071840203802877  0.4013658977649461  0.2619377105822715   T   T   T
  0.1061053687801520  0.4013870070407400  0.3977442438613541   T   T   T
  0.1078799960000012  0.0873199999999983  0.0473599990000011   F   F   F
  0.1068935085493922  0.1026203616013861  0.1774064791668198   T   T   T
  0.1055661992205857  0.1024407587522039  0.3136479725797771   T   T   T
  0.0962214335389497  0.0827851525717458  0.4525139410740094   T   T   T
  0.3578799960000012  0.3373199999999983  0.0606499980000024   F   F   F
  0.3572574682055765  0.3510103471800765  0.1944253156337564   T   T   T
  0.3562023286917322  0.3549707361414118  0.3293128537257691   T   T   T
  0.3562138146471309  0.3359538422849720  0.4625115230598641   T   T   T
  0.3578799960000012  0.1421200039999988  0.1080100009999967   F   F   F
  0.3567914733612377  0.1487976116936409  0.2458907547319998   T   T   T
  0.3558357041931770  0.1557545749902389  0.3802789556062661   T   T   T
  0.3535736133159645  0.1245164440697508  0.5155157803279820   T   T   T
  0.6078799960000012  0.3921200039999988  0.0000000000000000   F   F   F
  0.6079255510158791  0.3953880745156858  0.1270564900710349   T   T   T
  0.6061970962480199  0.4014893159691574  0.2619076279029747   T   T   T
  0.6062280122392458  0.4012139463111888  0.3980554788267129   T   T   T
  0.6078799960000012  0.0873199999999983  0.0473599990000011   F   F   F
  0.6078338363736274  0.1026723840345621  0.1773966716853916   T   T   T
  0.6070353460083646  0.1028109246907315  0.3136101550069159   T   T   T
  0.6094049013341116  0.0810264596296842  0.4527438628039840   T   T   T
  0.8578799960000012  0.3373199999999983  0.0606499980000024   F   F   F
  0.8573944195305666  0.3513190185470607  0.1945261280006497   T   T   T
  0.8562841678184433  0.3541414507000966  0.3295310211402243   T   T   T
  0.8540821283492882  0.3322990379986762  0.4619267338923471   T   T   T
  0.8578799960000012  0.1421200039999988  0.1080100009999967   F   F   F
  0.8566564017375354  0.1488009286140095  0.2458338485655565   T   T   T
  0.8547813487294883  0.1512789228965574  0.3808491497134281   T   T   T
  0.8547098319488614  0.1334045249028077  0.5179456248709261   T   T   T
  0.1078799960000012  0.8921200039999988  0.0000000000000000   F   F   F
  0.1072080779598207  0.8957645664433821  0.1270314087251729   T   T   T
  0.1068075851116975  0.8981943607590908  0.2627847162795912   T   T   T
  0.1009952894487925  0.8900700054034483  0.4020532594410627   T   T   T
  0.1078799960000012  0.5873200300000008  0.0473599990000011   F   F   F
  0.1078105114336949  0.6025522102152522  0.1773661887228160   T   T   T
  0.1070753240920334  0.6047155320197991  0.3137174544720649   T   T   T
  0.1048437537118266  0.5906808311336891  0.4535588734631505   T   T   T
  0.3578799960000012  0.8373200300000008  0.0606499980000024   F   F   F
  0.3571348143361082  0.8528828105400583  0.1944250752055176   T   T   T
  0.3567672482792915  0.8540803132408963  0.3318869577844086   T   T   T
  0.3358409273342560  0.8258215439427613  0.4733502606096693   T   T   T
  0.3578799960000012  0.6421200039999988  0.1080100009999967   F   F   F
  0.3566310078058995  0.6503540936637369  0.2453077587747646   T   T   T
  0.3545694413769506  0.6485209043522284  0.3827529431393029   T   T   T
  0.3377520169566436  0.6389700295480985  0.5339626870469411   T   T   T
  0.6078799960000012  0.8921200039999988  0.0000000000000000   F   F   F
  0.6080367439188150  0.8957403822888298  0.1270476082770835   T   T   T
  0.6060802388620764  0.8981839293474877  0.2626669191170183   T   T   T
  0.6057070947808565  0.8886201598195785  0.4024673279721928   T   T   T
  0.6078799960000012  0.5873200300000008  0.0473599990000011   F   F   F
  0.6068558416614618  0.6024139861620129  0.1773602434512061   T   T   T
  0.6053381437394377  0.6042907132487573  0.3138507815357778   T   T   T
  0.6092910583092771  0.5977974266009054  0.4522591045154368   T   T   T
  0.8578799960000012  0.8373200300000008  0.0606499980000024   F   F   F
  0.8574322321995269  0.8528024711549188  0.1944387402849803   T   T   T
  0.8552345114694507  0.8549282867091710  0.3321543532281069   T   T   T
  0.8578799960000012  0.6421200039999988  0.1080100009999967   F   F   F
  0.8567770684090658  0.6509159684015311  0.2451939409660235   T   T   T
  0.8564711938191847  0.6473546590069561  0.3822998120715287   T   T   T
  0.8573508079941357  0.6225588438218357  0.5214782559391046   T   T   T
  0.3544998663653455  0.3494723340562986  0.5242685791616192   T   T   T
  0.0719069593616127  0.8989538289050043  0.5326359311951940   T   T   T
  0.6673935274285331  0.8802697620926521  0.5260655902854688   T   T   T
  0.8558265543740965  0.3593474192951190  0.5229974666886574   T   T   T
  0.1027706524644295  0.9345335653137949  0.5703164902105599   T   T   T
  0.1230480013780376  0.8417495277353302  0.5844713251881715   T   T   T
 
  0.00000000E+00  0.00000000E+00  0.00000000E+00
  0.00000000E+00  0.00000000E+00  0.00000000E+00
  0.00000000E+00  0.00000000E+00  0.00000000E+00
  0.00000000E+00  0.00000000E+00  0.00000000E+00
  0.00000000E+00  0.00000000E+00  0.00000000E+00
  0.00000000E+00  0.00000000E+00  0.00000000E+00
  0.00000000E+00  0.00000000E+00  0.00000000E+00
  0.00000000E+00  0.00000000E+00  0.00000000E+00
  0.00000000E+00  0.00000000E+00  0.00000000E+00
  0.00000000E+00  0.00000000E+00  0.00000000E+00
  0.00000000E+00  0.00000000E+00  0.00000000E+00
  0.00000000E+00  0.00000000E+00  0.00000000E+00
  0.00000000E+00  0.00000000E+00  0.00000000E+00
  0.00000000E+00  0.00000000E+00  0.00000000E+00
  0.00000000E+00  0.00000000E+00  0.00000000E+00
  0.00000000E+00  0.00000000E+00  0.00000000E+00
  0.00000000E+00  0.00000000E+00  0.00000000E+00
  0.00000000E+00  0.00000000E+00  0.00000000E+00
  0.00000000E+00  0.00000000E+00  0.00000000E+00
  0.00000000E+00  0.00000000E+00  0.00000000E+00
  0.00000000E+00  0.00000000E+00  0.00000000E+00
  0.00000000E+00  0.00000000E+00  0.00000000E+00
  0.00000000E+00  0.00000000E+00  0.00000000E+00
  0.00000000E+00  0.00000000E+00  0.00000000E+00
  0.00000000E+00  0.00000000E+00  0.00000000E+00
  0.00000000E+00  0.00000000E+00  0.00000000E+00
  0.00000000E+00  0.00000000E+00  0.00000000E+00
  0.00000000E+00  0.00000000E+00  0.00000000E+00
  0.00000000E+00  0.00000000E+00  0.00000000E+00
  0.00000000E+00  0.00000000E+00  0.00000000E+00
  0.00000000E+00  0.00000000E+00  0.00000000E+00
  0.00000000E+00  0.00000000E+00  0.00000000E+00
  0.00000000E+00  0.00000000E+00  0.00000000E+00
  0.00000000E+00  0.00000000E+00  0.00000000E+00
  0.00000000E+00  0.00000000E+00  0.00000000E+00
  0.00000000E+00  0.00000000E+00  0.00000000E+00
  0.00000000E+00  0.00000000E+00  0.00000000E+00
  0.00000000E+00  0.00000000E+00  0.00000000E+00
  0.00000000E+00  0.00000000E+00  0.00000000E+00
  0.00000000E+00  0.00000000E+00  0.00000000E+00
  0.00000000E+00  0.00000000E+00  0.00000000E+00
  0.00000000E+00  0.00000000E+00  0.00000000E+00
  0.00000000E+00  0.00000000E+00  0.00000000E+00
  0.00000000E+00  0.00000000E+00  0.00000000E+00
  0.00000000E+00  0.00000000E+00  0.00000000E+00
  0.00000000E+00  0.00000000E+00  0.00000000E+00
  0.00000000E+00  0.00000000E+00  0.00000000E+00
  0.00000000E+00  0.00000000E+00  0.00000000E+00
  0.00000000E+00  0.00000000E+00  0.00000000E+00
  0.00000000E+00  0.00000000E+00  0.00000000E+00
  0.00000000E+00  0.00000000E+00  0.00000000E+00
  0.00000000E+00  0.00000000E+00  0.00000000E+00
  0.00000000E+00  0.00000000E+00  0.00000000E+00
  0.00000000E+00  0.00000000E+00  0.00000000E+00
  0.00000000E+00  0.00000000E+00  0.00000000E+00
  0.00000000E+00  0.00000000E+00  0.00000000E+00
  0.00000000E+00  0.00000000E+00  0.00000000E+00
  0.00000000E+00  0.00000000E+00  0.00000000E+00
  0.00000000E+00  0.00000000E+00  0.00000000E+00
  0.00000000E+00  0.00000000E+00  0.00000000E+00
  0.00000000E+00  0.00000000E+00  0.00000000E+00
  0.00000000E+00  0.00000000E+00  0.00000000E+00
  0.00000000E+00  0.00000000E+00  0.00000000E+00
  0.00000000E+00  0.00000000E+00  0.00000000E+00
  0.00000000E+00  0.00000000E+00  0.00000000E+00
  0.00000000E+00  0.00000000E+00  0.00000000E+00
  0.00000000E+00  0.00000000E+00  0.00000000E+00
  0.00000000E+00  0.00000000E+00  0.00000000E+00
  0.00000000E+00  0.00000000E+00  0.00000000E+00
  0.00000000E+00  0.00000000E+00  0.00000000E+00
  0.00000000E+00  0.00000000E+00  0.00000000E+00
  0.00000000E+00  0.00000000E+00  0.00000000E+00
  0.00000000E+00  0.00000000E+00  0.00000000E+00
  0.00000000E+00  0.00000000E+00  0.00000000E+00
  0.00000000E+00  0.00000000E+00  0.00000000E+00
  0.00000000E+00  0.00000000E+00  0.00000000E+00
  0.00000000E+00  0.00000000E+00  0.00000000E+00
  0.00000000E+00  0.00000000E+00  0.00000000E+00
  0.00000000E+00  0.00000000E+00  0.00000000E+00
  0.00000000E+00  0.00000000E+00  0.00000000E+00
  0.00000000E+00  0.00000000E+00  0.00000000E+00
  0.00000000E+00  0.00000000E+00  0.00000000E+00
  0.00000000E+00  0.00000000E+00  0.00000000E+00
  0.00000000E+00  0.00000000E+00  0.00000000E+00
  0.00000000E+00  0.00000000E+00  0.00000000E+00
  0.00000000E+00  0.00000000E+00  0.00000000E+00
  0.00000000E+00  0.00000000E+00  0.00000000E+00
  0.00000000E+00  0.00000000E+00  0.00000000E+00
  0.00000000E+00  0.00000000E+00  0.00000000E+00
  0.00000000E+00  0.00000000E+00  0.00000000E+00
  0.00000000E+00  0.00000000E+00  0.00000000E+00
  0.00000000E+00  0.00000000E+00  0.00000000E+00
  0.00000000E+00  0.00000000E+00  0.00000000E+00
  0.00000000E+00  0.00000000E+00  0.00000000E+00
  0.00000000E+00  0.00000000E+00  0.00000000E+00
  0.00000000E+00  0.00000000E+00  0.00000000E+00
  0.00000000E+00  0.00000000E+00  0.00000000E+00
  0.00000000E+00  0.00000000E+00  0.00000000E+00
  0.00000000E+00  0.00000000E+00  0.00000000E+00
  0.00000000E+00  0.00000000E+00  0.00000000E+00
  0.00000000E+00  0.00000000E+00  0.00000000E+00
