POSCAR                                  
   1.00000000000000     
     5.8973503687055313    0.0047681330624968   -0.0032970223331622
    -0.0114648467808067    9.1397174128741892   -0.0194560812380806
     0.0545468707394757    0.1272039030071211   34.8453811463715226
   Ti   O 
    32    68
Selective dynamics
Direct
  0.1078799960000012  0.2397200019999985  0.0843300000000013   F   F   F
  0.1065365073424992  0.2425147207456831  0.2195155742335802   T   T   T
  0.1088913111549024  0.2400877293129615  0.3551850380701496   T   T   T
  0.1164194918853284  0.2309920406605357  0.4912355635214837   T   T   T
  0.3578799960000012  0.4897199870000009  0.0236799999999988   F   F   F
  0.3577121396632488  0.4927409926534725  0.1525054809642534   T   T   T
  0.3566791782737619  0.4928084034661726  0.2873879761998492   T   T   T
  0.3576940447233306  0.4861044904382748  0.4247267081728022   T   T   T
  0.6078799960000012  0.2397200019999985  0.0843300000000013   F   F   F
  0.6083111560825272  0.2437332135643765  0.2196552328231513   T   T   T
  0.6048117758162319  0.2435136523937935  0.3554581978289957   T   T   T
  0.6027658366262976  0.2353492434226032  0.4937000901931034   T   T   T
  0.8578799960000012  0.4897199870000009  0.0236799999999988   F   F   F
  0.8581432975617679  0.4930639937792997  0.1521291385607800   T   T   T
  0.8581338311218798  0.4923644136054185  0.2886933630846361   T   T   T
  0.8620330409035278  0.4961072466646543  0.4233543573095144   T   T   T
  0.1078799960000012  0.7397199870000009  0.0843300000000013   F   F   F
  0.1064352621898793  0.7437230650615893  0.2196553052630140   T   T   T
  0.1076808040239052  0.7435289454797077  0.3554711676589992   T   T   T
  0.1075708220499347  0.7352846915171343  0.4937104624254318   T   T   T
  0.3578799960000012  0.9897199870000009  0.0236799999999988   F   F   F
  0.3581837285428640  0.9927667627360131  0.1525089429092036   T   T   T
  0.3570782595964453  0.9928516931430812  0.2873947765828152   T   T   T
  0.3537057184264372  0.9861088759779078  0.4247441432926745   T   T   T
  0.6078799960000012  0.7397199870000009  0.0843300000000013   F   F   F
  0.6081917599329999  0.7425144954268357  0.2195152765151039   T   T   T
  0.6036033100991520  0.7401086584257026  0.3551769943424662   T   T   T
  0.5939736601271838  0.7309740674380502  0.4912302828268570   T   T   T
  0.8578799960000012  0.9897199870000009  0.0236799999999988   F   F   F
  0.8577576652368667  0.9930377841626055  0.1521271212510311   T   T   T
  0.8556209655231658  0.9923140688065147  0.2886822877767363   T   T   T
  0.8493879440773042  0.9961039112091870  0.4233506325424528   T   T   T
  0.1078799960000012  0.3921200039999988  0.0000000000000000   F   F   F
  0.1074626504052434  0.3947230308822334  0.1272791716149084   T   T   T
  0.1065622701948664  0.3956846394794788  0.2624207535056212   T   T   T
  0.1081349749461038  0.3945092196220365  0.3983110265232875   T   T   T
  0.1078799960000012  0.0873199999999983  0.0473599990000011   F   F   F
  0.1072996132819211  0.1012232352265555  0.1772454309967983   T   T   T
  0.1067259175845359  0.0989755769481936  0.3133013345513627   T   T   T
  0.1025746146409889  0.0980537951721920  0.4492327320920906   T   T   T
  0.3578799960000012  0.3373199999999983  0.0606499980000024   F   F   F
  0.3571672505771759  0.3504146897563884  0.1946214857743770   T   T   T
  0.3566854714422756  0.3486360663402598  0.3301100648214760   T   T   T
  0.3570581681256642  0.3544434144470441  0.4673163576122568   T   T   T
  0.3578799960000012  0.1421200039999988  0.1080100009999967   F   F   F
  0.3567271487907495  0.1455753649341416  0.2453249089369183   T   T   T
  0.3555600512601314  0.1455262827369845  0.3812413895444480   T   T   T
  0.3571789146327436  0.1562547614331486  0.5183938644319181   T   T   T
  0.6078799960000012  0.3921200039999988  0.0000000000000000   F   F   F
  0.6077173613691175  0.3947780975169612  0.1272897004269181   T   T   T
  0.6067193654515260  0.3956954592974080  0.2623903363494623   T   T   T
  0.6057954072963948  0.3939232336950460  0.3984594790273927   T   T   T
  0.6078799960000012  0.0873199999999983  0.0473599990000011   F   F   F
  0.6073080534501477  0.1011454234033488  0.1772498484478789   T   T   T
  0.6062590964252699  0.0986650404576261  0.3133513756493814   T   T   T
  0.6080711476259953  0.0980622989063742  0.4494016867126450   T   T   T
  0.8578799960000012  0.3373199999999983  0.0606499980000024   F   F   F
  0.8572021719171312  0.3503530818652193  0.1946257575444867   T   T   T
  0.8560388366861001  0.3493656024534318  0.3302132941167529   T   T   T
  0.8561958656545139  0.3503034499770407  0.4648169790354967   T   T   T
  0.8578799960000012  0.1421200039999988  0.1080100009999967   F   F   F
  0.8568801153251171  0.1458802437627456  0.2452713530196661   T   T   T
  0.8562763017767915  0.1451417558325585  0.3808692053617762   T   T   T
  0.8602624498414817  0.1611497450245509  0.5201396096904660   T   T   T
  0.1078799960000012  0.8921200039999988  0.0000000000000000   F   F   F
  0.1074574288612315  0.8947753785339789  0.1272884449765795   T   T   T
  0.1066205802961913  0.8956982032286793  0.2623928904956866   T   T   T
  0.1057558169882940  0.8939277203069774  0.3984629538457940   T   T   T
  0.1078799960000012  0.5873200300000008  0.0473599990000011   F   F   F
  0.1072916453025986  0.6011436851256980  0.1772492029675396   T   T   T
  0.1065348139096148  0.5986741666874088  0.3133567532079769   T   T   T
  0.1030108991632932  0.5980972427132242  0.4493873207507920   T   T   T
  0.3578799960000012  0.8373200300000008  0.0606499980000024   F   F   F
  0.3571947733976109  0.8504099916134557  0.1946208603984588   T   T   T
  0.3558848500755141  0.8486501578156649  0.3301120482416524   T   T   T
  0.3537066354390451  0.8544115669279343  0.4673136503365610   T   T   T
  0.3578799960000012  0.6421200039999988  0.1080100009999967   F   F   F
  0.3568723899999028  0.6455752914247259  0.2453241361167947   T   T   T
  0.3562265967431532  0.6455374574402030  0.3812407179859117   T   T   T
  0.3527649387410831  0.6562353923354862  0.5183979481942215   T   T   T
  0.6078799960000012  0.8921200039999988  0.0000000000000000   F   F   F
  0.6077225909169891  0.8947251809350941  0.1272800086424574   T   T   T
  0.6067917376678550  0.8956792087346450  0.2624174405333100   T   T   T
  0.6034060605716528  0.8945085389968965  0.3983169812617119   T   T   T
  0.6078799960000012  0.5873200300000008  0.0473599990000011   F   F   F
  0.6073179250861476  0.6012232639057817  0.1772452138347864   T   T   T
  0.6060595830511918  0.5989800286492416  0.3133004013032316   T   T   T
  0.6084845341542601  0.5980502238446750  0.4492294908486119   T   T   T
  0.8578799960000012  0.8373200300000008  0.0606499980000024   F   F   F
  0.8571935613192642  0.8503533922567332  0.1946259914899553   T   T   T
  0.8565033516878249  0.8493701340669105  0.3302138459881775   T   T   T
  0.8545989004668972  0.8502878681654178  0.4648206198601203   T   T   T
  0.8578799960000012  0.6421200039999988  0.1080100009999967   F   F   F
  0.8567242902445105  0.6458793497556270  0.2452735321262982   T   T   T
  0.8554851400045148  0.6451560749479232  0.3808681725653945   T   T   T
  0.8496171536431822  0.6610600575880875  0.5201289276889565   T   T   T
 -0.0109447676575565  0.3883900807174046  0.5259409227817199   T   T   T
  0.0791353989502276  0.8921897947963437  0.5341879444156872   T   T   T
  0.7212234942181659  0.8882883138420757  0.5259599119308918   T   T   T
  0.6310790620379526  0.3920120895436043  0.5342420644618205   T   T   T
 
  0.00000000E+00  0.00000000E+00  0.00000000E+00
  0.00000000E+00  0.00000000E+00  0.00000000E+00
  0.00000000E+00  0.00000000E+00  0.00000000E+00
  0.00000000E+00  0.00000000E+00  0.00000000E+00
  0.00000000E+00  0.00000000E+00  0.00000000E+00
  0.00000000E+00  0.00000000E+00  0.00000000E+00
  0.00000000E+00  0.00000000E+00  0.00000000E+00
  0.00000000E+00  0.00000000E+00  0.00000000E+00
  0.00000000E+00  0.00000000E+00  0.00000000E+00
  0.00000000E+00  0.00000000E+00  0.00000000E+00
  0.00000000E+00  0.00000000E+00  0.00000000E+00
  0.00000000E+00  0.00000000E+00  0.00000000E+00
  0.00000000E+00  0.00000000E+00  0.00000000E+00
  0.00000000E+00  0.00000000E+00  0.00000000E+00
  0.00000000E+00  0.00000000E+00  0.00000000E+00
  0.00000000E+00  0.00000000E+00  0.00000000E+00
  0.00000000E+00  0.00000000E+00  0.00000000E+00
  0.00000000E+00  0.00000000E+00  0.00000000E+00
  0.00000000E+00  0.00000000E+00  0.00000000E+00
  0.00000000E+00  0.00000000E+00  0.00000000E+00
  0.00000000E+00  0.00000000E+00  0.00000000E+00
  0.00000000E+00  0.00000000E+00  0.00000000E+00
  0.00000000E+00  0.00000000E+00  0.00000000E+00
  0.00000000E+00  0.00000000E+00  0.00000000E+00
  0.00000000E+00  0.00000000E+00  0.00000000E+00
  0.00000000E+00  0.00000000E+00  0.00000000E+00
  0.00000000E+00  0.00000000E+00  0.00000000E+00
  0.00000000E+00  0.00000000E+00  0.00000000E+00
  0.00000000E+00  0.00000000E+00  0.00000000E+00
  0.00000000E+00  0.00000000E+00  0.00000000E+00
  0.00000000E+00  0.00000000E+00  0.00000000E+00
  0.00000000E+00  0.00000000E+00  0.00000000E+00
  0.00000000E+00  0.00000000E+00  0.00000000E+00
  0.00000000E+00  0.00000000E+00  0.00000000E+00
  0.00000000E+00  0.00000000E+00  0.00000000E+00
  0.00000000E+00  0.00000000E+00  0.00000000E+00
  0.00000000E+00  0.00000000E+00  0.00000000E+00
  0.00000000E+00  0.00000000E+00  0.00000000E+00
  0.00000000E+00  0.00000000E+00  0.00000000E+00
  0.00000000E+00  0.00000000E+00  0.00000000E+00
  0.00000000E+00  0.00000000E+00  0.00000000E+00
  0.00000000E+00  0.00000000E+00  0.00000000E+00
  0.00000000E+00  0.00000000E+00  0.00000000E+00
  0.00000000E+00  0.00000000E+00  0.00000000E+00
  0.00000000E+00  0.00000000E+00  0.00000000E+00
  0.00000000E+00  0.00000000E+00  0.00000000E+00
  0.00000000E+00  0.00000000E+00  0.00000000E+00
  0.00000000E+00  0.00000000E+00  0.00000000E+00
  0.00000000E+00  0.00000000E+00  0.00000000E+00
  0.00000000E+00  0.00000000E+00  0.00000000E+00
  0.00000000E+00  0.00000000E+00  0.00000000E+00
  0.00000000E+00  0.00000000E+00  0.00000000E+00
  0.00000000E+00  0.00000000E+00  0.00000000E+00
  0.00000000E+00  0.00000000E+00  0.00000000E+00
  0.00000000E+00  0.00000000E+00  0.00000000E+00
  0.00000000E+00  0.00000000E+00  0.00000000E+00
  0.00000000E+00  0.00000000E+00  0.00000000E+00
  0.00000000E+00  0.00000000E+00  0.00000000E+00
  0.00000000E+00  0.00000000E+00  0.00000000E+00
  0.00000000E+00  0.00000000E+00  0.00000000E+00
  0.00000000E+00  0.00000000E+00  0.00000000E+00
  0.00000000E+00  0.00000000E+00  0.00000000E+00
  0.00000000E+00  0.00000000E+00  0.00000000E+00
  0.00000000E+00  0.00000000E+00  0.00000000E+00
  0.00000000E+00  0.00000000E+00  0.00000000E+00
  0.00000000E+00  0.00000000E+00  0.00000000E+00
  0.00000000E+00  0.00000000E+00  0.00000000E+00
  0.00000000E+00  0.00000000E+00  0.00000000E+00
  0.00000000E+00  0.00000000E+00  0.00000000E+00
  0.00000000E+00  0.00000000E+00  0.00000000E+00
  0.00000000E+00  0.00000000E+00  0.00000000E+00
  0.00000000E+00  0.00000000E+00  0.00000000E+00
  0.00000000E+00  0.00000000E+00  0.00000000E+00
  0.00000000E+00  0.00000000E+00  0.00000000E+00
  0.00000000E+00  0.00000000E+00  0.00000000E+00
  0.00000000E+00  0.00000000E+00  0.00000000E+00
  0.00000000E+00  0.00000000E+00  0.00000000E+00
  0.00000000E+00  0.00000000E+00  0.00000000E+00
  0.00000000E+00  0.00000000E+00  0.00000000E+00
  0.00000000E+00  0.00000000E+00  0.00000000E+00
  0.00000000E+00  0.00000000E+00  0.00000000E+00
  0.00000000E+00  0.00000000E+00  0.00000000E+00
  0.00000000E+00  0.00000000E+00  0.00000000E+00
  0.00000000E+00  0.00000000E+00  0.00000000E+00
  0.00000000E+00  0.00000000E+00  0.00000000E+00
  0.00000000E+00  0.00000000E+00  0.00000000E+00
  0.00000000E+00  0.00000000E+00  0.00000000E+00
  0.00000000E+00  0.00000000E+00  0.00000000E+00
  0.00000000E+00  0.00000000E+00  0.00000000E+00
  0.00000000E+00  0.00000000E+00  0.00000000E+00
  0.00000000E+00  0.00000000E+00  0.00000000E+00
  0.00000000E+00  0.00000000E+00  0.00000000E+00
  0.00000000E+00  0.00000000E+00  0.00000000E+00
  0.00000000E+00  0.00000000E+00  0.00000000E+00
  0.00000000E+00  0.00000000E+00  0.00000000E+00
  0.00000000E+00  0.00000000E+00  0.00000000E+00
  0.00000000E+00  0.00000000E+00  0.00000000E+00
  0.00000000E+00  0.00000000E+00  0.00000000E+00
  0.00000000E+00  0.00000000E+00  0.00000000E+00
  0.00000000E+00  0.00000000E+00  0.00000000E+00
