CONTCAR
1.0
       21.8405990601         0.0000000000         0.0000000000
        0.0000315287         9.1068000793         0.0000000000
       -0.2267951427         0.0022719718        20.6480539922
   Ti    O
   64  129
Direct
     0.008730000         0.402399987         0.031620000
     0.181789994         0.408659995         0.148690000
     0.116889998         0.387840003         0.275629997
     0.039360002         0.427740008         0.391660005
     0.133729994         0.152400002         0.031620000
     0.056779999         0.146050006         0.148690000
     0.241880000         0.166810006         0.275620013
     0.164360002         0.126890004         0.391649991
     0.258729994         0.402399987         0.031620000
     0.431789994         0.408659995         0.148690000
     0.366880000         0.387829989         0.275620013
     0.289359987         0.427740008         0.391660005
     0.383729994         0.152400002         0.031620000
     0.306780010         0.146050006         0.148690000
     0.491880000         0.166820005         0.275610000
     0.414359987         0.126890004         0.391649991
     0.008730000         0.902400017         0.031620000
     0.181789994         0.908659995         0.148690000
     0.116889998         0.887839973         0.275629997
     0.039360002         0.927739978         0.391660005
     0.133729994         0.652400017         0.031620000
     0.056779999         0.646049976         0.148690000
     0.241880000         0.666809976         0.275620013
     0.164360002         0.626890004         0.391649991
     0.258729994         0.902400017         0.031620000
     0.431789994         0.908659995         0.148690000
     0.366880000         0.887830019         0.275620013
     0.289359987         0.927739978         0.391660005
     0.383729994         0.652400017         0.031620000
     0.306780010         0.646049976         0.148690000
     0.491880000         0.666819990         0.275610000
     0.414359987         0.626890004         0.391649991
     0.508729994         0.402399987         0.031620000
     0.681789994         0.408659995         0.148690000
     0.616880000         0.387829989         0.275620013
     0.539349973         0.427749991         0.391660005
     0.633729994         0.152400002         0.031620000
     0.556779981         0.146050006         0.148699999
     0.741880000         0.166820005         0.275620013
     0.664370000         0.126890004         0.391660005
     0.758729994         0.402399987         0.031620000
     0.931789994         0.408659995         0.148699999
     0.866880000         0.387840003         0.275620013
     0.789349973         0.427749991         0.391660005
     0.883729994         0.152400002         0.031620000
     0.806779981         0.146050006         0.148690000
     0.991880000         0.166820005         0.275620013
     0.914359987         0.126890004         0.391649991
     0.508729994         0.902400017         0.031620000
     0.681789994         0.908659995         0.148690000
     0.616880000         0.887830019         0.275620013
     0.539349973         0.927749991         0.391660005
     0.633729994         0.652400017         0.031620000
     0.556779981         0.646049976         0.148699999
     0.741880000         0.666819990         0.275620013
     0.664370000         0.626890004         0.391660005
     0.758729994         0.902400017         0.031620000
     0.931789994         0.908659995         0.148699999
     0.866880000         0.887839973         0.275620013
     0.789349973         0.927749991         0.391660005
     0.883729994         0.652400017         0.031620000
     0.806779981         0.646049976         0.148690000
     0.991880000         0.666819990         0.275620013
     0.914359987         0.626890004         0.391649991
     0.062590003         0.054800000         0.063239999
     0.239319995         0.057100002         0.188510001
     0.169510007         0.051050000         0.309390008
     0.098770000         0.045090001         0.432229996
     0.204870000         0.250000000         0.000000000
     0.134159997         0.243919998         0.115280002
     0.061239999         0.249180004         0.235100001
     0.239020005         0.252480000         0.359160006
     0.079870000         0.304800004         0.000000000
     0.009160000         0.310810000         0.115270004
     0.186240003         0.305500001         0.235110000
     0.114019997         0.302150011         0.359169990
     0.187580004         0.000000000         0.063239999
     0.114309996         0.997590005         0.188510001
     0.044509999         0.003590000         0.309379995
     0.223769993         0.009500000         0.432240009
     0.312579989         0.054800000         0.063239999
     0.489320010         0.057100002         0.188510001
     0.419510007         0.051040001         0.309390008
     0.348769993         0.045079999         0.432229996
     0.454869986         0.250000000         0.000000000
     0.384160012         0.243919998         0.115270004
     0.311239988         0.249180004         0.235110000
     0.489019990         0.252480000         0.359160006
     0.329869986         0.304800004         0.000000000
     0.259160012         0.310820013         0.115270004
     0.436239988         0.305500001         0.235110000
     0.364019990         0.302150011         0.359169990
     0.437579989         0.000000000         0.063239999
     0.364309996         0.997590005         0.188510001
     0.294510007         0.003590000         0.309379995
     0.473769993         0.009500000         0.432229996
     0.062590003         0.554799974         0.063239999
     0.239319995         0.557099998         0.188510001
     0.169510007         0.551050007         0.309390008
     0.098770000         0.545090020         0.432240009
     0.204870000         0.750000000         0.000000000
     0.134159997         0.743920028         0.115280002
     0.061239999         0.749180019         0.235100001
     0.239020005         0.752479970         0.359160006
     0.079870000         0.804799974         0.000000000
     0.009160000         0.810810030         0.115270004
     0.186240003         0.805499971         0.235110000
     0.114019997         0.802150011         0.359169990
     0.187580004         0.500000000         0.063239999
     0.114309996         0.497599989         0.188510001
     0.044509999         0.503589988         0.309379995
     0.223769993         0.509500027         0.432240009
     0.312579989         0.554799974         0.063239999
     0.489320010         0.557099998         0.188510001
     0.419510007         0.551039994         0.309390008
     0.348769993         0.545080006         0.432229996
     0.454869986         0.750000000         0.000000000
     0.384160012         0.743920028         0.115270004
     0.311239988         0.749180019         0.235110000
     0.489019990         0.752479970         0.359160006
     0.329869986         0.804799974         0.000000000
     0.259160012         0.810819983         0.115270004
     0.436239988         0.805499971         0.235110000
     0.364019990         0.802150011         0.359169990
     0.437579989         0.500000000         0.063239999
     0.364309996         0.497590005         0.188510001
     0.294510007         0.503579974         0.309379995
     0.473769993         0.509500027         0.432229996
     0.562590003         0.054800000         0.063239999
     0.739319980         0.057100002         0.188510001
     0.669510007         0.051040001         0.309390008
     0.598770022         0.045079999         0.432229996
     0.704869986         0.250000000         0.000000000
     0.634169996         0.243919998         0.115280002
     0.561240017         0.249180004         0.235110000
     0.739019990         0.252480000         0.359160006
     0.579869986         0.304800004         0.000000000
     0.509159982         0.310820013         0.115270004
     0.686240017         0.305500001         0.235110000
     0.614019990         0.302150011         0.359169990
     0.687579989         0.000000000         0.063239999
     0.614319980         0.997590005         0.188510001
     0.544510007         0.003590000         0.309379995
     0.723770022         0.009510000         0.432240009
     0.812579989         0.054800000         0.063239999
     0.989319980         0.057100002         0.188510001
     0.919510007         0.051050000         0.309390008
     0.848770022         0.045090001         0.432229996
     0.954869986         0.250000000         0.000000000
     0.884159982         0.243919998         0.115270004
     0.811240017         0.249180004         0.235110000
     0.989019990         0.252480000         0.359160006
     0.829869986         0.304800004         0.000000000
     0.759159982         0.310820013         0.115270004
     0.936240017         0.305489987         0.235110000
     0.864019990         0.302150011         0.359169990
     0.937579989         0.000000000         0.063239999
     0.864319980         0.997590005         0.188510001
     0.794510007         0.003590000         0.309379995
     0.973760009         0.009510000         0.432240009
     0.562590003         0.554799974         0.063239999
     0.739319980         0.557099998         0.188510001
     0.669510007         0.551039994         0.309390008
     0.598770022         0.545080006         0.432229996
     0.704869986         0.750000000         0.000000000
     0.634169996         0.743920028         0.115280002
     0.561240017         0.749180019         0.235110000
     0.739019990         0.752479970         0.359160006
     0.579869986         0.804799974         0.000000000
     0.509159982         0.810819983         0.115270004
     0.686240017         0.805499971         0.235110000
     0.614019990         0.802150011         0.359169990
     0.687579989         0.500000000         0.063239999
     0.614319980         0.497590005         0.188510001
     0.544510007         0.503589988         0.309379995
     0.723770022         0.509509981         0.432240009
     0.812579989         0.554799974         0.063239999
     0.989319980         0.557099998         0.188510001
     0.919510007         0.551050007         0.309390008
     0.848770022         0.545090020         0.432229996
     0.954869986         0.750000000         0.000000000
     0.884159982         0.743920028         0.115270004
     0.811240017         0.749180019         0.235110000
     0.989019990         0.752479970         0.359160006
     0.829869986         0.804799974         0.000000000
     0.759159982         0.810819983         0.115270004
     0.936240017         0.805490017         0.235110000
     0.864019990         0.802150011         0.359169990
     0.937579989         0.500000000         0.063239999
     0.864319980         0.497590005         0.188510001
     0.794510007         0.503589988         0.309379995
     0.973760009         0.509509981         0.432240009
     0.796130002         0.319070011         0.466899991
