CONTCAR\(3)                             
   1.00000000000000     
     5.8928608774776130    0.0000294969629552   -0.0022335577929499
    -0.0035880148019475    9.1450841364143685   -0.0029826876286150
     0.0380194580458109    0.0278622134713017   34.1659372757923165
   Ti   O    H 
    32    68     1
Selective dynamics
Direct
  0.1078799960000012  0.2397200019999985  0.0843300000000013   F   F   F
  0.1087389908324585  0.2466413494978551  0.2224028834370760   T   T   T
  0.1107159423709654  0.2392419343535361  0.3602357698335958   T   T   T
  0.1066534351862931  0.2376319761408586  0.5024490131258603   T   T   T
  0.3578799960000012  0.4897199870000009  0.0236799999999988   F   F   F
  0.3581691347959870  0.4945320648260013  0.1533439442648007   T   T   T
  0.3609742043208727  0.4949965206740898  0.2925515087566256   T   T   T
  0.3601874091363864  0.4936094162508389  0.4280751181001618   T   T   T
  0.6078799960000012  0.2397200019999985  0.0843300000000013   F   F   F
  0.6083083467233819  0.2468016257455869  0.2221353879872431   T   T   T
  0.6073355251885362  0.2416156700601491  0.3610461177014428   T   T   T
  0.6057542061686888  0.2392275348001861  0.5023617438859682   T   T   T
  0.8578799960000012  0.4897199870000009  0.0236799999999988   F   F   F
  0.8586854767444131  0.4941531485389821  0.1533706906627834   T   T   T
  0.8603268523530742  0.4927181306173794  0.2930916613979242   T   T   T
  0.8657842052415492  0.4971373849565408  0.4294368796871408   T   T   T
  0.1078799960000012  0.7397199870000009  0.0843300000000013   F   F   F
  0.1082889966819037  0.7434087660427061  0.2224867844607784   T   T   T
  0.1080990425677434  0.7491978660352541  0.3606259325692482   T   T   T
  0.1129706753656349  0.7356855256052330  0.5028996177752845   T   T   T
  0.3578799960000012  0.9897199870000009  0.0236799999999988   F   F   F
  0.3586779756215575  0.9932297707816484  0.1540039431749978   T   T   T
  0.3591043926232891  0.9947692355583284  0.2910321777804496   T   T   T
  0.3554945961673610  0.9883619785179791  0.4329490158337861   T   T   T
  0.6078799960000012  0.7397199870000009  0.0843300000000013   F   F   F
  0.6094854698480048  0.7427600220783718  0.2221153943609527   T   T   T
  0.6092362105064877  0.7485549030467961  0.3612603548522764   T   T   T
  0.6007452770403942  0.7266855221598604  0.4989639189674306   T   T   T
  0.8578799960000012  0.9897199870000009  0.0236799999999988   F   F   F
  0.8589184963303328  0.9938433913619833  0.1538338133210863   T   T   T
  0.8572734177311673  0.9965868561171680  0.2911194135804064   T   T   T
  0.8557034394304036  0.9986556628074024  0.4317451207134044   T   T   T
  0.1078799960000012  0.3921200039999988  0.0000000000000000   F   F   F
  0.1076046228752360  0.3952790831900896  0.1282108127713397   T   T   T
  0.1066942714711259  0.3969839710142541  0.2657864891263759   T   T   T
  0.1077747635138130  0.3962120477070882  0.4034814044742793   T   T   T
  0.1078799960000012  0.0873199999999983  0.0473599990000011   F   F   F
  0.1071679489929777  0.1029202733335639  0.1790463539727362   T   T   T
  0.1065196858243867  0.0987376791458279  0.3175273654803906   T   T   T
  0.1065436244550119  0.0995725472506116  0.4564703506777781   T   T   T
  0.3578799960000012  0.3373199999999983  0.0606499980000024   F   F   F
  0.3572749168155649  0.3517113609440601  0.1968266832073582   T   T   T
  0.3565027620142538  0.3484004813124690  0.3346096618432379   T   T   T
  0.3565772051226654  0.3411224960547951  0.4703313399213099   T   T   T
  0.3578799960000012  0.1421200039999988  0.1080100009999967   F   F   F
  0.3569497097269229  0.1465204687483082  0.2484554373750303   T   T   T
  0.3562148248695177  0.1452734691039397  0.3866115350481462   T   T   T
  0.3570676705810000  0.1256894242153798  0.5226515462231488   T   T   T
  0.6078799960000012  0.3921200039999988  0.0000000000000000   F   F   F
  0.6076117976597308  0.3953424157234416  0.1282188364869596   T   T   T
  0.6068928235243637  0.3970138325530048  0.2658010557534922   T   T   T
  0.6064312766905953  0.3954603681783068  0.4034964369118601   T   T   T
  0.6078799960000012  0.0873199999999983  0.0473599990000011   F   F   F
  0.6073920783085668  0.1029535925037003  0.1790559997268051   T   T   T
  0.6068664664312310  0.0985580269675178  0.3175428532360196   T   T   T
  0.6055229766832377  0.0991329451219639  0.4564630038364845   T   T   T
  0.8578799960000012  0.3373199999999983  0.0606499980000024   F   F   F
  0.8571908117580415  0.3517428895768670  0.1968250457815908   T   T   T
  0.8564920602105531  0.3487104245228483  0.3346422996569620   T   T   T
  0.8559869682178622  0.3407735628320167  0.4701580405944741   T   T   T
  0.8578799960000012  0.1421200039999988  0.1080100009999967   F   F   F
  0.8569505776290307  0.1464516730592482  0.2484657936958300   T   T   T
  0.8568607494180661  0.1457470817153803  0.3867677887782479   T   T   T
  0.8558428722368402  0.1267196965995545  0.5224597689882691   T   T   T
  0.1078799960000012  0.8921200039999988  0.0000000000000000   F   F   F
  0.1075528536678072  0.8951108776416626  0.1282589025874458   T   T   T
  0.1069398990259279  0.8960234511989443  0.2658408621712733   T   T   T
  0.1046462933500081  0.8948147462435303  0.4049793680859641   T   T   T
  0.1078799960000012  0.5873200300000008  0.0473599990000011   F   F   F
  0.1074388515854934  0.6021849516297785  0.1788123773088600   T   T   T
  0.1068327786191245  0.6002763168781328  0.3181058358489326   T   T   T
  0.1049172275425982  0.5942214983605586  0.4573501106598203   T   T   T
  0.3578799960000012  0.8373200300000008  0.0606499980000024   F   F   F
  0.3572087494825765  0.8514726591496420  0.1967998669383039   T   T   T
  0.3564121124454742  0.8503883445786525  0.3351693703775009   T   T   T
  0.3550008148481490  0.8512178242203235  0.4748887060150470   T   T   T
  0.3578799960000012  0.6421200039999988  0.1080100009999967   F   F   F
  0.3571187784014466  0.6465463229640740  0.2483673850186717   T   T   T
  0.3561162143698884  0.6469763465803720  0.3873554012470219   T   T   T
  0.3586388083197590  0.6522159290919477  0.5266151899252290   T   T   T
  0.6078799960000012  0.8921200039999988  0.0000000000000000   F   F   F
  0.6076194816315782  0.8951416044907612  0.1282591653037111   T   T   T
  0.6069513305559856  0.8959874644935534  0.2658370993874578   T   T   T
  0.6061422819766914  0.8951084488853303  0.4047718445077564   T   T   T
  0.6078799960000012  0.5873200300000008  0.0473599990000011   F   F   F
  0.6072543101481526  0.6022655163047035  0.1788007948610816   T   T   T
  0.6060820721248457  0.6002269963425854  0.3181010692474222   T   T   T
  0.6082472989566148  0.5934695565215095  0.4562242456421163   T   T   T
  0.8578799960000012  0.8373200300000008  0.0606499980000024   F   F   F
  0.8571454610385217  0.8514013192707676  0.1967883970912127   T   T   T
  0.8566214489016865  0.8503445647519196  0.3351824523329168   T   T   T
  0.8549522826789508  0.8513862542089838  0.4737730197252286   T   T   T
  0.8578799960000012  0.6421200039999988  0.1080100009999967   F   F   F
  0.8569490572516199  0.6468213203490466  0.2483188927626816   T   T   T
  0.8564048889165052  0.6464060333495699  0.3870542414616248   T   T   T
  0.8529796880233114  0.6410444360482416  0.5250888705854749   T   T   T
  0.3559312718080401  0.3521316439082651  0.5327666380852085   T   T   T
  0.0895717086034591  0.8749342429338089  0.5484745161396772   T   T   T
  0.7271706018804539  0.8627957197404901  0.5406425934956345   T   T   T
  0.8559313181490448  0.3523539999041617  0.5326061673580215   T   T   T
  0.0711348055051381  0.8265693891604398  0.5738994512559917   T   T   T
 
  0.00000000E+00  0.00000000E+00  0.00000000E+00
  0.00000000E+00  0.00000000E+00  0.00000000E+00
  0.00000000E+00  0.00000000E+00  0.00000000E+00
  0.00000000E+00  0.00000000E+00  0.00000000E+00
  0.00000000E+00  0.00000000E+00  0.00000000E+00
  0.00000000E+00  0.00000000E+00  0.00000000E+00
  0.00000000E+00  0.00000000E+00  0.00000000E+00
  0.00000000E+00  0.00000000E+00  0.00000000E+00
  0.00000000E+00  0.00000000E+00  0.00000000E+00
  0.00000000E+00  0.00000000E+00  0.00000000E+00
  0.00000000E+00  0.00000000E+00  0.00000000E+00
  0.00000000E+00  0.00000000E+00  0.00000000E+00
  0.00000000E+00  0.00000000E+00  0.00000000E+00
  0.00000000E+00  0.00000000E+00  0.00000000E+00
  0.00000000E+00  0.00000000E+00  0.00000000E+00
  0.00000000E+00  0.00000000E+00  0.00000000E+00
  0.00000000E+00  0.00000000E+00  0.00000000E+00
  0.00000000E+00  0.00000000E+00  0.00000000E+00
  0.00000000E+00  0.00000000E+00  0.00000000E+00
  0.00000000E+00  0.00000000E+00  0.00000000E+00
  0.00000000E+00  0.00000000E+00  0.00000000E+00
  0.00000000E+00  0.00000000E+00  0.00000000E+00
  0.00000000E+00  0.00000000E+00  0.00000000E+00
  0.00000000E+00  0.00000000E+00  0.00000000E+00
  0.00000000E+00  0.00000000E+00  0.00000000E+00
  0.00000000E+00  0.00000000E+00  0.00000000E+00
  0.00000000E+00  0.00000000E+00  0.00000000E+00
  0.00000000E+00  0.00000000E+00  0.00000000E+00
  0.00000000E+00  0.00000000E+00  0.00000000E+00
  0.00000000E+00  0.00000000E+00  0.00000000E+00
  0.00000000E+00  0.00000000E+00  0.00000000E+00
  0.00000000E+00  0.00000000E+00  0.00000000E+00
  0.00000000E+00  0.00000000E+00  0.00000000E+00
  0.00000000E+00  0.00000000E+00  0.00000000E+00
  0.00000000E+00  0.00000000E+00  0.00000000E+00
  0.00000000E+00  0.00000000E+00  0.00000000E+00
  0.00000000E+00  0.00000000E+00  0.00000000E+00
  0.00000000E+00  0.00000000E+00  0.00000000E+00
  0.00000000E+00  0.00000000E+00  0.00000000E+00
  0.00000000E+00  0.00000000E+00  0.00000000E+00
  0.00000000E+00  0.00000000E+00  0.00000000E+00
  0.00000000E+00  0.00000000E+00  0.00000000E+00
  0.00000000E+00  0.00000000E+00  0.00000000E+00
  0.00000000E+00  0.00000000E+00  0.00000000E+00
  0.00000000E+00  0.00000000E+00  0.00000000E+00
  0.00000000E+00  0.00000000E+00  0.00000000E+00
  0.00000000E+00  0.00000000E+00  0.00000000E+00
  0.00000000E+00  0.00000000E+00  0.00000000E+00
  0.00000000E+00  0.00000000E+00  0.00000000E+00
  0.00000000E+00  0.00000000E+00  0.00000000E+00
  0.00000000E+00  0.00000000E+00  0.00000000E+00
  0.00000000E+00  0.00000000E+00  0.00000000E+00
  0.00000000E+00  0.00000000E+00  0.00000000E+00
  0.00000000E+00  0.00000000E+00  0.00000000E+00
  0.00000000E+00  0.00000000E+00  0.00000000E+00
  0.00000000E+00  0.00000000E+00  0.00000000E+00
  0.00000000E+00  0.00000000E+00  0.00000000E+00
  0.00000000E+00  0.00000000E+00  0.00000000E+00
  0.00000000E+00  0.00000000E+00  0.00000000E+00
  0.00000000E+00  0.00000000E+00  0.00000000E+00
  0.00000000E+00  0.00000000E+00  0.00000000E+00
  0.00000000E+00  0.00000000E+00  0.00000000E+00
  0.00000000E+00  0.00000000E+00  0.00000000E+00
  0.00000000E+00  0.00000000E+00  0.00000000E+00
  0.00000000E+00  0.00000000E+00  0.00000000E+00
  0.00000000E+00  0.00000000E+00  0.00000000E+00
  0.00000000E+00  0.00000000E+00  0.00000000E+00
  0.00000000E+00  0.00000000E+00  0.00000000E+00
  0.00000000E+00  0.00000000E+00  0.00000000E+00
  0.00000000E+00  0.00000000E+00  0.00000000E+00
  0.00000000E+00  0.00000000E+00  0.00000000E+00
  0.00000000E+00  0.00000000E+00  0.00000000E+00
  0.00000000E+00  0.00000000E+00  0.00000000E+00
  0.00000000E+00  0.00000000E+00  0.00000000E+00
  0.00000000E+00  0.00000000E+00  0.00000000E+00
  0.00000000E+00  0.00000000E+00  0.00000000E+00
  0.00000000E+00  0.00000000E+00  0.00000000E+00
  0.00000000E+00  0.00000000E+00  0.00000000E+00
  0.00000000E+00  0.00000000E+00  0.00000000E+00
  0.00000000E+00  0.00000000E+00  0.00000000E+00
  0.00000000E+00  0.00000000E+00  0.00000000E+00
  0.00000000E+00  0.00000000E+00  0.00000000E+00
  0.00000000E+00  0.00000000E+00  0.00000000E+00
  0.00000000E+00  0.00000000E+00  0.00000000E+00
  0.00000000E+00  0.00000000E+00  0.00000000E+00
  0.00000000E+00  0.00000000E+00  0.00000000E+00
  0.00000000E+00  0.00000000E+00  0.00000000E+00
  0.00000000E+00  0.00000000E+00  0.00000000E+00
  0.00000000E+00  0.00000000E+00  0.00000000E+00
  0.00000000E+00  0.00000000E+00  0.00000000E+00
  0.00000000E+00  0.00000000E+00  0.00000000E+00
  0.00000000E+00  0.00000000E+00  0.00000000E+00
  0.00000000E+00  0.00000000E+00  0.00000000E+00
  0.00000000E+00  0.00000000E+00  0.00000000E+00
  0.00000000E+00  0.00000000E+00  0.00000000E+00
  0.00000000E+00  0.00000000E+00  0.00000000E+00
  0.00000000E+00  0.00000000E+00  0.00000000E+00
  0.00000000E+00  0.00000000E+00  0.00000000E+00
  0.00000000E+00  0.00000000E+00  0.00000000E+00
  0.00000000E+00  0.00000000E+00  0.00000000E+00
  0.00000000E+00  0.00000000E+00  0.00000000E+00
