CONTCAR                                 
   1.00000000000000     
     5.8971416799863849   -0.0023251244718262   -0.0041125109379089
     0.0014372689628332    9.1913541336954534   -0.0003873132520151
     0.0109134857733910   -0.1476870384827269   34.1741571587877502
   Ti   O    H 
    32    67     1
Selective dynamics
Direct
  0.1078799960000012  0.2397200019999985  0.0843300000000013   F   F   F
  0.1089655875804801  0.2474146927223100  0.2212514635816286   T   T   T
  0.1218253483419130  0.2522524885731691  0.3576109440491861   T   T   T
  0.1084840537866309  0.2310092004398774  0.4985688462433577   T   T   T
  0.3578799960000012  0.4897199870000009  0.0236799999999988   F   F   F
  0.3587899488680340  0.4948123465925248  0.1530599779361218   T   T   T
  0.3593033319562203  0.5067290951650365  0.2876041096189183   T   T   T
  0.3712382094360095  0.5007195616305157  0.4287874849559131   T   T   T
  0.6078799960000012  0.2397200019999985  0.0843300000000013   F   F   F
  0.6086612104017255  0.2467190934513006  0.2213714262012529   T   T   T
  0.5961135123366852  0.2501690256572581  0.3567094592262771   T   T   T
  0.6102011404728782  0.2291932875368190  0.4989571880159557   T   T   T
  0.8578799960000012  0.4897199870000009  0.0236799999999988   F   F   F
  0.8582753262373841  0.4930959107392474  0.1527435792363729   T   T   T
  0.8592025861398634  0.4945399288464580  0.2914909301466418   T   T   T
  0.8657976453092155  0.4904150965405712  0.4262331055739694   T   T   T
  0.1078799960000012  0.7397199870000009  0.0843300000000013   F   F   F
  0.1044026229868292  0.7471931673180143  0.2202670352080189   T   T   T
  0.1108951957521861  0.7459610022802332  0.3596757196806241   T   T   T
  0.1166223595266774  0.6953994677900749  0.5061981723596963   T   T   T
  0.3578799960000012  0.9897199870000009  0.0236799999999988   F   F   F
  0.3586611796969493  0.9942079789536752  0.1533415363691353   T   T   T
  0.3597694545058583  0.9924544161133537  0.2894094138157524   T   T   T
  0.3590118720432178  0.9576255799872059  0.4379407172494350   T   T   T
  0.6078799960000012  0.7397199870000009  0.0843300000000013   F   F   F
  0.6124269881560391  0.7479425487635731  0.2205877741723410   T   T   T
  0.6115408754545762  0.7495301073328213  0.3589089897784652   T   T   T
  0.5956749644948244  0.7059344841668643  0.5084025684144020   T   T   T
  0.8578799960000012  0.9897199870000009  0.0236799999999988   F   F   F
  0.8586966603685822  0.9972766981521278  0.1521693303630869   T   T   T
  0.8616912922832795  0.0003025587211269  0.2908720728534872   T   T   T
  0.8592184131167963  0.0168587860838457  0.4216658036780627   T   T   T
  0.1078799960000012  0.3921200039999988  0.0000000000000000   F   F   F
  0.1074624132612284  0.3956833490747226  0.1274767015634369   T   T   T
  0.1079127877425163  0.4016262432290197  0.2633495897906119   T   T   T
  0.1112600572586664  0.3996710703701048  0.3999904280763545   T   T   T
  0.1078799960000012  0.0873199999999983  0.0473599990000011   F   F   F
  0.1071965013276335  0.1027062702631122  0.1782344521171020   T   T   T
  0.1063565253208072  0.1010337573733864  0.3156155648339513   T   T   T
  0.1059765031124692  0.0807719072882268  0.4556520685136902   T   T   T
  0.3578799960000012  0.3373199999999983  0.0606499980000024   F   F   F
  0.3575404306576500  0.3510665508695269  0.1953186825014717   T   T   T
  0.3583327336111934  0.3531094666630454  0.3310237101460438   T   T   T
  0.3589310015398235  0.3338576214778485  0.4657454444991840   T   T   T
  0.3578799960000012  0.1421200039999988  0.1080100009999967   F   F   F
  0.3577827713622897  0.1492310807958105  0.2473673053400015   T   T   T
  0.3588769865428512  0.1544722856462503  0.3824066905692877   T   T   T
  0.3579866514175266  0.1220981071172011  0.5197569950457359   T   T   T
  0.6078799960000012  0.3921200039999988  0.0000000000000000   F   F   F
  0.6079307694590756  0.3956261710654624  0.1274749608891505   T   T   T
  0.6075556560585499  0.4017555610039020  0.2633030115249153   T   T   T
  0.6060014636655230  0.4003050254745390  0.4002200290228395   T   T   T
  0.6078799960000012  0.0873199999999983  0.0473599990000011   F   F   F
  0.6081034823541979  0.1027718839638347  0.1782230663902466   T   T   T
  0.6092945423902046  0.1010997189397356  0.3155613357309037   T   T   T
  0.6136183718680406  0.0782133989076624  0.4562994204176124   T   T   T
  0.8578799960000012  0.3373199999999983  0.0606499980000024   F   F   F
  0.8577146708555030  0.3513330196379104  0.1954031580207078   T   T   T
  0.8578801281489749  0.3530207228950918  0.3314642928056486   T   T   T
  0.8579536730300451  0.3257209321951530  0.4641894363532634   T   T   T
  0.8578799960000012  0.1421200039999988  0.1080100009999967   F   F   F
  0.8576509495253056  0.1488565936906331  0.2472355651142385   T   T   T
  0.8580092118510755  0.1521619125500302  0.3838069268557192   T   T   T
  0.8593544274105450  0.1364845351903035  0.5232193226648886   T   T   T
  0.1078799960000012  0.8921200039999988  0.0000000000000000   F   F   F
  0.1072812764170859  0.8961444228731497  0.1274808039413464   T   T   T
  0.1082978289866848  0.8982686047786280  0.2641127513434267   T   T   T
  0.1027888612513163  0.8895283223952922  0.4044779996301403   T   T   T
  0.1078799960000012  0.5873200300000008  0.0473599990000011   F   F   F
  0.1081197993360408  0.6025137861881797  0.1780782998256139   T   T   T
  0.1092048677910272  0.6031986708006856  0.3158661769903347   T   T   T
  0.1033692633744849  0.5889693316295915  0.4558682280221625   T   T   T
  0.3578799960000012  0.8373200300000008  0.0606499980000024   F   F   F
  0.3575249948661898  0.8526979667374953  0.1953294953922543   T   T   T
  0.3579843106500495  0.8527277938460226  0.3337806287673943   T   T   T
  0.3585835120511089  0.8163916567556556  0.4738280748233699   T   T   T
  0.3578799960000012  0.6421200039999988  0.1080100009999967   F   F   F
  0.3575114975808712  0.6505475404305949  0.2466598645722075   T   T   T
  0.3582230471171579  0.6491731263170382  0.3857358248824623   T   T   T
  0.3523391095708283  0.6366057766567738  0.5356044413120448   T   T   T
  0.6078799960000012  0.8921200039999988  0.0000000000000000   F   F   F
  0.6081236650429956  0.8961138451624523  0.1274993765448844   T   T   T
  0.6069530320736375  0.8980769456231731  0.2640522941711121   T   T   T
  0.6135725462447619  0.8902057226369010  0.4042519144439493   T   T   T
  0.6078799960000012  0.5873200300000008  0.0473599990000011   F   F   F
  0.6071561709325620  0.6023789899198203  0.1780993208711268   T   T   T
  0.6064339070988138  0.6033334289341112  0.3158155745548373   T   T   T
  0.6148305306944428  0.5906232725110442  0.4557946906210957   T   T   T
  0.8578799960000012  0.8373200300000008  0.0606499980000024   F   F   F
  0.8576818193649691  0.8525916481115188  0.1953373470913656   T   T   T
  0.8579313484139832  0.8529503695356366  0.3338183587582285   T   T   T
  0.8578799960000012  0.6421200039999988  0.1080100009999967   F   F   F
  0.8578132467901203  0.6513417201775965  0.2465714432780619   T   T   T
  0.8582612200821580  0.6458540284486723  0.3846356774393309   T   T   T
  0.8587570348009623  0.6174932865968572  0.5248818958236708   T   T   T
  0.3591635736924464  0.3470250475539596  0.5277614166263787   T   T   T
  0.0400169047576068  0.8851992056942400  0.5220890637409751   T   T   T
  0.6644230072705529  0.8816321675909707  0.5277002271022504   T   T   T
  0.8597470013284845  0.3619893855164936  0.5249185004880577   T   T   T
 -0.0503339339241823  0.9163448118851343  0.5448935280126793   T   T   T
 
  0.00000000E+00  0.00000000E+00  0.00000000E+00
  0.00000000E+00  0.00000000E+00  0.00000000E+00
  0.00000000E+00  0.00000000E+00  0.00000000E+00
  0.00000000E+00  0.00000000E+00  0.00000000E+00
  0.00000000E+00  0.00000000E+00  0.00000000E+00
  0.00000000E+00  0.00000000E+00  0.00000000E+00
  0.00000000E+00  0.00000000E+00  0.00000000E+00
  0.00000000E+00  0.00000000E+00  0.00000000E+00
  0.00000000E+00  0.00000000E+00  0.00000000E+00
  0.00000000E+00  0.00000000E+00  0.00000000E+00
  0.00000000E+00  0.00000000E+00  0.00000000E+00
  0.00000000E+00  0.00000000E+00  0.00000000E+00
  0.00000000E+00  0.00000000E+00  0.00000000E+00
  0.00000000E+00  0.00000000E+00  0.00000000E+00
  0.00000000E+00  0.00000000E+00  0.00000000E+00
  0.00000000E+00  0.00000000E+00  0.00000000E+00
  0.00000000E+00  0.00000000E+00  0.00000000E+00
  0.00000000E+00  0.00000000E+00  0.00000000E+00
  0.00000000E+00  0.00000000E+00  0.00000000E+00
  0.00000000E+00  0.00000000E+00  0.00000000E+00
  0.00000000E+00  0.00000000E+00  0.00000000E+00
  0.00000000E+00  0.00000000E+00  0.00000000E+00
  0.00000000E+00  0.00000000E+00  0.00000000E+00
  0.00000000E+00  0.00000000E+00  0.00000000E+00
  0.00000000E+00  0.00000000E+00  0.00000000E+00
  0.00000000E+00  0.00000000E+00  0.00000000E+00
  0.00000000E+00  0.00000000E+00  0.00000000E+00
  0.00000000E+00  0.00000000E+00  0.00000000E+00
  0.00000000E+00  0.00000000E+00  0.00000000E+00
  0.00000000E+00  0.00000000E+00  0.00000000E+00
  0.00000000E+00  0.00000000E+00  0.00000000E+00
  0.00000000E+00  0.00000000E+00  0.00000000E+00
  0.00000000E+00  0.00000000E+00  0.00000000E+00
  0.00000000E+00  0.00000000E+00  0.00000000E+00
  0.00000000E+00  0.00000000E+00  0.00000000E+00
  0.00000000E+00  0.00000000E+00  0.00000000E+00
  0.00000000E+00  0.00000000E+00  0.00000000E+00
  0.00000000E+00  0.00000000E+00  0.00000000E+00
  0.00000000E+00  0.00000000E+00  0.00000000E+00
  0.00000000E+00  0.00000000E+00  0.00000000E+00
  0.00000000E+00  0.00000000E+00  0.00000000E+00
  0.00000000E+00  0.00000000E+00  0.00000000E+00
  0.00000000E+00  0.00000000E+00  0.00000000E+00
  0.00000000E+00  0.00000000E+00  0.00000000E+00
  0.00000000E+00  0.00000000E+00  0.00000000E+00
  0.00000000E+00  0.00000000E+00  0.00000000E+00
  0.00000000E+00  0.00000000E+00  0.00000000E+00
  0.00000000E+00  0.00000000E+00  0.00000000E+00
  0.00000000E+00  0.00000000E+00  0.00000000E+00
  0.00000000E+00  0.00000000E+00  0.00000000E+00
  0.00000000E+00  0.00000000E+00  0.00000000E+00
  0.00000000E+00  0.00000000E+00  0.00000000E+00
  0.00000000E+00  0.00000000E+00  0.00000000E+00
  0.00000000E+00  0.00000000E+00  0.00000000E+00
  0.00000000E+00  0.00000000E+00  0.00000000E+00
  0.00000000E+00  0.00000000E+00  0.00000000E+00
  0.00000000E+00  0.00000000E+00  0.00000000E+00
  0.00000000E+00  0.00000000E+00  0.00000000E+00
  0.00000000E+00  0.00000000E+00  0.00000000E+00
  0.00000000E+00  0.00000000E+00  0.00000000E+00
  0.00000000E+00  0.00000000E+00  0.00000000E+00
  0.00000000E+00  0.00000000E+00  0.00000000E+00
  0.00000000E+00  0.00000000E+00  0.00000000E+00
  0.00000000E+00  0.00000000E+00  0.00000000E+00
  0.00000000E+00  0.00000000E+00  0.00000000E+00
  0.00000000E+00  0.00000000E+00  0.00000000E+00
  0.00000000E+00  0.00000000E+00  0.00000000E+00
  0.00000000E+00  0.00000000E+00  0.00000000E+00
  0.00000000E+00  0.00000000E+00  0.00000000E+00
  0.00000000E+00  0.00000000E+00  0.00000000E+00
  0.00000000E+00  0.00000000E+00  0.00000000E+00
  0.00000000E+00  0.00000000E+00  0.00000000E+00
  0.00000000E+00  0.00000000E+00  0.00000000E+00
  0.00000000E+00  0.00000000E+00  0.00000000E+00
  0.00000000E+00  0.00000000E+00  0.00000000E+00
  0.00000000E+00  0.00000000E+00  0.00000000E+00
  0.00000000E+00  0.00000000E+00  0.00000000E+00
  0.00000000E+00  0.00000000E+00  0.00000000E+00
  0.00000000E+00  0.00000000E+00  0.00000000E+00
  0.00000000E+00  0.00000000E+00  0.00000000E+00
  0.00000000E+00  0.00000000E+00  0.00000000E+00
  0.00000000E+00  0.00000000E+00  0.00000000E+00
  0.00000000E+00  0.00000000E+00  0.00000000E+00
  0.00000000E+00  0.00000000E+00  0.00000000E+00
  0.00000000E+00  0.00000000E+00  0.00000000E+00
  0.00000000E+00  0.00000000E+00  0.00000000E+00
  0.00000000E+00  0.00000000E+00  0.00000000E+00
  0.00000000E+00  0.00000000E+00  0.00000000E+00
  0.00000000E+00  0.00000000E+00  0.00000000E+00
  0.00000000E+00  0.00000000E+00  0.00000000E+00
  0.00000000E+00  0.00000000E+00  0.00000000E+00
  0.00000000E+00  0.00000000E+00  0.00000000E+00
  0.00000000E+00  0.00000000E+00  0.00000000E+00
  0.00000000E+00  0.00000000E+00  0.00000000E+00
  0.00000000E+00  0.00000000E+00  0.00000000E+00
  0.00000000E+00  0.00000000E+00  0.00000000E+00
  0.00000000E+00  0.00000000E+00  0.00000000E+00
  0.00000000E+00  0.00000000E+00  0.00000000E+00
  0.00000000E+00  0.00000000E+00  0.00000000E+00
  0.00000000E+00  0.00000000E+00  0.00000000E+00
