CONTCAR\(3)                             
   1.00000000000000     
     5.8908338335109001    0.0001904790646367   -0.0016848194435346
    -0.0033248815658694    9.1400181994705711   -0.0027416783702877
     0.0412070919845330    0.0293614709404881   34.1515999801680366
   Ti   O    H 
    32    69     1
Selective dynamics
Direct
  0.1078799960000012  0.2397200019999985  0.0843300000000013   F   F   F
  0.1073940505010861  0.2475021833099391  0.2223819396477519   T   T   T
  0.1054904003859038  0.2396191927618137  0.3614140286826387   T   T   T
  0.1043531181510748  0.2378412537943234  0.5023681032607222   T   T   T
  0.3578799960000012  0.4897199870000009  0.0236799999999988   F   F   F
  0.3579262099309115  0.4944309677453721  0.1533215131517252   T   T   T
  0.3565750574920685  0.4928822231304706  0.2935845540493021   T   T   T
  0.3576223988624238  0.4945958349566820  0.4284820756319034   T   T   T
  0.6078799960000012  0.2397200019999985  0.0843300000000013   F   F   F
  0.6070947020295520  0.2471456294743455  0.2225206428550111   T   T   T
  0.6071220897278055  0.2376976061856700  0.3605549223780921   T   T   T
  0.6038873763752153  0.2374757222429565  0.5025737655523643   T   T   T
  0.8578799960000012  0.4897199870000009  0.0236799999999988   F   F   F
  0.8574607410569213  0.4944117207788138  0.1534014036751810   T   T   T
  0.8567316699026177  0.4935178997467903  0.2932219241554324   T   T   T
  0.8525973122797473  0.4956255966998600  0.4289807199487313   T   T   T
  0.1078799960000012  0.7397199870000009  0.0843300000000013   F   F   F
  0.1077305770521460  0.7419756542519877  0.2223430066843068   T   T   T
  0.1057218122295859  0.7491520879910505  0.3614728481297516   T   T   T
  0.1089066704709845  0.7291134965085162  0.4997391181102007   T   T   T
  0.3578799960000012  0.9897199870000009  0.0236799999999988   F   F   F
  0.3580195931035415  0.9933878732496881  0.1540725698464523   T   T   T
  0.3557595815331642  0.9958887945843617  0.2911594193211022   T   T   T
  0.3549419013685349  0.9924549428373896  0.4326848325364671   T   T   T
  0.6078799960000012  0.7397199870000009  0.0843300000000013   F   F   F
  0.6071693035712079  0.7427548272831901  0.2226311055631310   T   T   T
  0.6062746218808106  0.7507587763568567  0.3610607398907817   T   T   T
  0.6009313111130056  0.7350508830523249  0.5007356471835114   T   T   T
  0.8578799960000012  0.9897199870000009  0.0236799999999988   F   F   F
  0.8579614254019651  0.9932467185330669  0.1541843877381576   T   T   T
  0.8574364271888462  0.9957352377629656  0.2909026796617448   T   T   T
  0.8550958356515169  0.9902060904606131  0.4337559022270697   T   T   T
  0.1078799960000012  0.3921200039999988  0.0000000000000000   F   F   F
  0.1076527784583064  0.3952998130410117  0.1282576097469340   T   T   T
  0.1068094670127223  0.3966808644184290  0.2660293473090986   T   T   T
  0.1071284931306904  0.3958286529941374  0.4040799760680233   T   T   T
  0.1078799960000012  0.0873199999999983  0.0473599990000011   F   F   F
  0.1073702245026442  0.1030825460737037  0.1791643492260941   T   T   T
  0.1067701080768422  0.0982532164050207  0.3177690272942592   T   T   T
  0.1062798716005374  0.1004018193054023  0.4565708735428313   T   T   T
  0.3578799960000012  0.3373199999999983  0.0606499980000024   F   F   F
  0.3572641876599754  0.3518302489142958  0.1969795291064946   T   T   T
  0.3566323778742758  0.3485658979810434  0.3349375907100444   T   T   T
  0.3555911687154660  0.3406067001436235  0.4707859464530937   T   T   T
  0.3578799960000012  0.1421200039999988  0.1080100009999967   F   F   F
  0.3569935601435336  0.1461969034544287  0.2486213681737195   T   T   T
  0.3565691289992171  0.1451415488214777  0.3869454285979278   T   T   T
  0.3545128903247254  0.1235394472834831  0.5230557015839419   T   T   T
  0.6078799960000012  0.3921200039999988  0.0000000000000000   F   F   F
  0.6075759441765579  0.3952381245309671  0.1282507549564881   T   T   T
  0.6070273632327032  0.3967373761524672  0.2660146271646129   T   T   T
  0.6058075427097036  0.3955266847264574  0.4039121062453971   T   T   T
  0.6078799960000012  0.0873199999999983  0.0473599990000011   F   F   F
  0.6073464321598956  0.1030868631470036  0.1791587384141224   T   T   T
  0.6066458960673816  0.0983682240053806  0.3177023308092007   T   T   T
  0.6051061720581566  0.0997875437851172  0.4567079566427210   T   T   T
  0.8578799960000012  0.3373199999999983  0.0606499980000024   F   F   F
  0.8573168800214180  0.3518081143728903  0.1969680668133359   T   T   T
  0.8567090542499431  0.3486057428126844  0.3349685500080056   T   T   T
  0.8559977904875939  0.3397128210053812  0.4704886697663707   T   T   T
  0.8578799960000012  0.1421200039999988  0.1080100009999967   F   F   F
  0.8569345976946544  0.1461556627269634  0.2486297441212783   T   T   T
  0.8560141000087977  0.1457253043827781  0.3868644568227668   T   T   T
  0.8544518433969085  0.1252980092283102  0.5232154524779197   T   T   T
  0.1078799960000012  0.8921200039999988  0.0000000000000000   F   F   F
  0.1076573937602801  0.8950025420758726  0.1283068960063707   T   T   T
  0.1068709565338526  0.8956550965737972  0.2660740836826083   T   T   T
  0.1059935708598405  0.8950374410985520  0.4050381916872889   T   T   T
  0.1078799960000012  0.5873200300000008  0.0473599990000011   F   F   F
  0.1073819143325304  0.6021795285077851  0.1788328891813661   T   T   T
  0.1067492209980016  0.6003053478951059  0.3183560128861391   T   T   T
  0.1054450301800538  0.5932417391830195  0.4580512743071477   T   T   T
  0.3578799960000012  0.8373200300000008  0.0606499980000024   F   F   F
  0.3572243993344277  0.8514161759740428  0.1969359423362707   T   T   T
  0.3569027579042255  0.8500100596620540  0.3354551147302219   T   T   T
  0.3543240853780190  0.8536681489324780  0.4752982516969525   T   T   T
  0.3578799960000012  0.6421200039999988  0.1080100009999967   F   F   F
  0.3569509719561413  0.6464914625192998  0.2484346088342763   T   T   T
  0.3557619804499185  0.6465257412175049  0.3877987668310022   T   T   T
  0.3554824784871520  0.6548099529332285  0.5268216671537148   T   T   T
  0.6078799960000012  0.8921200039999988  0.0000000000000000   F   F   F
  0.6075753776971979  0.8949894496775800  0.1283114542551453   T   T   T
  0.6069163681645163  0.8956933379685261  0.2660652352680504   T   T   T
  0.6061070123312018  0.8945126395753076  0.4051832699873795   T   T   T
  0.6078799960000012  0.5873200300000008  0.0473599990000011   F   F   F
  0.6074236148617397  0.6021187579334946  0.1788371068592229   T   T   T
  0.6066763842254779  0.6001229064039860  0.3184438813022983   T   T   T
  0.6080285525010775  0.5924158546720814  0.4570770772628878   T   T   T
  0.8578799960000012  0.8373200300000008  0.0606499980000024   F   F   F
  0.8573365842380278  0.8514209681534319  0.1969294105040660   T   T   T
  0.8563162723436224  0.8501189690939265  0.3354939252941894   T   T   T
  0.8583346615154817  0.8540856720141821  0.4752801493400081   T   T   T
  0.8578799960000012  0.6421200039999988  0.1080100009999967   F   F   F
  0.8570583237949463  0.6464520880637898  0.2484834637399883   T   T   T
  0.8570521230880382  0.6461049830994969  0.3876227473952745   T   T   T
  0.8551609962546577  0.6534477674504361  0.5274265291716119   T   T   T
  0.3532821160377351  0.3501514372904249  0.5332348845219325   T   T   T
  0.0699377309767490  0.8825795176556469  0.5507644379202943   T   T   T
  0.6448782334191572  0.8491841361275353  0.5498594943837833   T   T   T
  0.8532700937184716  0.3518847696646807  0.5327734369246718   T   T   T
  0.1929441420986707  0.8606834856307930  0.5833983486965429   T   T   T
  0.1233517217514944  0.9298388930951125  0.6022619194434152   T   T   T
 
  0.00000000E+00  0.00000000E+00  0.00000000E+00
  0.00000000E+00  0.00000000E+00  0.00000000E+00
  0.00000000E+00  0.00000000E+00  0.00000000E+00
  0.00000000E+00  0.00000000E+00  0.00000000E+00
  0.00000000E+00  0.00000000E+00  0.00000000E+00
  0.00000000E+00  0.00000000E+00  0.00000000E+00
  0.00000000E+00  0.00000000E+00  0.00000000E+00
  0.00000000E+00  0.00000000E+00  0.00000000E+00
  0.00000000E+00  0.00000000E+00  0.00000000E+00
  0.00000000E+00  0.00000000E+00  0.00000000E+00
  0.00000000E+00  0.00000000E+00  0.00000000E+00
  0.00000000E+00  0.00000000E+00  0.00000000E+00
  0.00000000E+00  0.00000000E+00  0.00000000E+00
  0.00000000E+00  0.00000000E+00  0.00000000E+00
  0.00000000E+00  0.00000000E+00  0.00000000E+00
  0.00000000E+00  0.00000000E+00  0.00000000E+00
  0.00000000E+00  0.00000000E+00  0.00000000E+00
  0.00000000E+00  0.00000000E+00  0.00000000E+00
  0.00000000E+00  0.00000000E+00  0.00000000E+00
  0.00000000E+00  0.00000000E+00  0.00000000E+00
  0.00000000E+00  0.00000000E+00  0.00000000E+00
  0.00000000E+00  0.00000000E+00  0.00000000E+00
  0.00000000E+00  0.00000000E+00  0.00000000E+00
  0.00000000E+00  0.00000000E+00  0.00000000E+00
  0.00000000E+00  0.00000000E+00  0.00000000E+00
  0.00000000E+00  0.00000000E+00  0.00000000E+00
  0.00000000E+00  0.00000000E+00  0.00000000E+00
  0.00000000E+00  0.00000000E+00  0.00000000E+00
  0.00000000E+00  0.00000000E+00  0.00000000E+00
  0.00000000E+00  0.00000000E+00  0.00000000E+00
  0.00000000E+00  0.00000000E+00  0.00000000E+00
  0.00000000E+00  0.00000000E+00  0.00000000E+00
  0.00000000E+00  0.00000000E+00  0.00000000E+00
  0.00000000E+00  0.00000000E+00  0.00000000E+00
  0.00000000E+00  0.00000000E+00  0.00000000E+00
  0.00000000E+00  0.00000000E+00  0.00000000E+00
  0.00000000E+00  0.00000000E+00  0.00000000E+00
  0.00000000E+00  0.00000000E+00  0.00000000E+00
  0.00000000E+00  0.00000000E+00  0.00000000E+00
  0.00000000E+00  0.00000000E+00  0.00000000E+00
  0.00000000E+00  0.00000000E+00  0.00000000E+00
  0.00000000E+00  0.00000000E+00  0.00000000E+00
  0.00000000E+00  0.00000000E+00  0.00000000E+00
  0.00000000E+00  0.00000000E+00  0.00000000E+00
  0.00000000E+00  0.00000000E+00  0.00000000E+00
  0.00000000E+00  0.00000000E+00  0.00000000E+00
  0.00000000E+00  0.00000000E+00  0.00000000E+00
  0.00000000E+00  0.00000000E+00  0.00000000E+00
  0.00000000E+00  0.00000000E+00  0.00000000E+00
  0.00000000E+00  0.00000000E+00  0.00000000E+00
  0.00000000E+00  0.00000000E+00  0.00000000E+00
  0.00000000E+00  0.00000000E+00  0.00000000E+00
  0.00000000E+00  0.00000000E+00  0.00000000E+00
  0.00000000E+00  0.00000000E+00  0.00000000E+00
  0.00000000E+00  0.00000000E+00  0.00000000E+00
  0.00000000E+00  0.00000000E+00  0.00000000E+00
  0.00000000E+00  0.00000000E+00  0.00000000E+00
  0.00000000E+00  0.00000000E+00  0.00000000E+00
  0.00000000E+00  0.00000000E+00  0.00000000E+00
  0.00000000E+00  0.00000000E+00  0.00000000E+00
  0.00000000E+00  0.00000000E+00  0.00000000E+00
  0.00000000E+00  0.00000000E+00  0.00000000E+00
  0.00000000E+00  0.00000000E+00  0.00000000E+00
  0.00000000E+00  0.00000000E+00  0.00000000E+00
  0.00000000E+00  0.00000000E+00  0.00000000E+00
  0.00000000E+00  0.00000000E+00  0.00000000E+00
  0.00000000E+00  0.00000000E+00  0.00000000E+00
  0.00000000E+00  0.00000000E+00  0.00000000E+00
  0.00000000E+00  0.00000000E+00  0.00000000E+00
  0.00000000E+00  0.00000000E+00  0.00000000E+00
  0.00000000E+00  0.00000000E+00  0.00000000E+00
  0.00000000E+00  0.00000000E+00  0.00000000E+00
  0.00000000E+00  0.00000000E+00  0.00000000E+00
  0.00000000E+00  0.00000000E+00  0.00000000E+00
  0.00000000E+00  0.00000000E+00  0.00000000E+00
  0.00000000E+00  0.00000000E+00  0.00000000E+00
  0.00000000E+00  0.00000000E+00  0.00000000E+00
  0.00000000E+00  0.00000000E+00  0.00000000E+00
  0.00000000E+00  0.00000000E+00  0.00000000E+00
  0.00000000E+00  0.00000000E+00  0.00000000E+00
  0.00000000E+00  0.00000000E+00  0.00000000E+00
  0.00000000E+00  0.00000000E+00  0.00000000E+00
  0.00000000E+00  0.00000000E+00  0.00000000E+00
  0.00000000E+00  0.00000000E+00  0.00000000E+00
  0.00000000E+00  0.00000000E+00  0.00000000E+00
  0.00000000E+00  0.00000000E+00  0.00000000E+00
  0.00000000E+00  0.00000000E+00  0.00000000E+00
  0.00000000E+00  0.00000000E+00  0.00000000E+00
  0.00000000E+00  0.00000000E+00  0.00000000E+00
  0.00000000E+00  0.00000000E+00  0.00000000E+00
  0.00000000E+00  0.00000000E+00  0.00000000E+00
  0.00000000E+00  0.00000000E+00  0.00000000E+00
  0.00000000E+00  0.00000000E+00  0.00000000E+00
  0.00000000E+00  0.00000000E+00  0.00000000E+00
  0.00000000E+00  0.00000000E+00  0.00000000E+00
  0.00000000E+00  0.00000000E+00  0.00000000E+00
  0.00000000E+00  0.00000000E+00  0.00000000E+00
  0.00000000E+00  0.00000000E+00  0.00000000E+00
  0.00000000E+00  0.00000000E+00  0.00000000E+00
  0.00000000E+00  0.00000000E+00  0.00000000E+00
  0.00000000E+00  0.00000000E+00  0.00000000E+00
  0.00000000E+00  0.00000000E+00  0.00000000E+00
