CONTCAR001
1.0
       18.3759002686         0.0000000000         0.0000000000
       -0.0503743684         9.1829615801         0.0000000000
        0.0000000000         0.0000000000        21.4888000488
   Ti    O
   64  129
Direct
     0.119860001         0.402399987         0.058350001
     0.119860001         0.402399987         0.196869999
     0.119860001         0.402399987         0.334500015
     0.119860001         0.402399987         0.470250010
     0.244859993         0.152400002         0.000000000
     0.244859993         0.152400002         0.141090006
     0.244859993         0.152400002         0.284370005
     0.244859993         0.152400002         0.432880014
     0.369859993         0.402399987         0.058350001
     0.369859993         0.402399987         0.196869999
     0.369859993         0.402399987         0.334500015
     0.369859993         0.402399987         0.470250010
     0.494859993         0.152400002         0.000000000
     0.494859993         0.152400002         0.141090006
     0.494859993         0.152400002         0.284370005
     0.494859993         0.152400002         0.432880014
     0.119860001         0.902400017         0.058350001
     0.119860001         0.902400017         0.196869999
     0.119860001         0.902400017         0.334500015
     0.119860001         0.902400017         0.470250010
     0.244859993         0.652400017         0.000000000
     0.244859993         0.652400017         0.141090006
     0.244859993         0.652400017         0.284370005
     0.244859993         0.652400017         0.432880014
     0.369859993         0.902400017         0.058350001
     0.369859993         0.902400017         0.196869999
     0.369859993         0.902400017         0.334500015
     0.369859993         0.902400017         0.470250010
     0.494859993         0.652400017         0.000000000
     0.494859993         0.652400017         0.141090006
     0.494859993         0.652400017         0.284370005
     0.494859993         0.652400017         0.432880014
     0.619859993         0.402399987         0.058350001
     0.619859993         0.402399987         0.196869999
     0.619859993         0.402399987         0.334500015
     0.619859993         0.402399987         0.470250010
     0.744859993         0.152400002         0.000000000
     0.744859993         0.152400002         0.141090006
     0.744859993         0.152400002         0.284370005
     0.744859993         0.152400002         0.432880014
     0.869859993         0.402399987         0.058350001
     0.869859993         0.402399987         0.196869999
     0.869859993         0.402399987         0.334500015
     0.869859993         0.402399987         0.470250010
     0.994859993         0.152400002         0.000000000
     0.994859993         0.152400002         0.141090006
     0.994859993         0.152400002         0.284370005
     0.994859993         0.152400002         0.432880014
     0.619859993         0.902400017         0.058350001
     0.619859993         0.902400017         0.196869999
     0.619859993         0.902400017         0.334500015
     0.619859993         0.902400017         0.470250010
     0.744859993         0.652400017         0.000000000
     0.744859993         0.652400017         0.141090006
     0.744859993         0.652400017         0.284370005
     0.744859993         0.652400017         0.432880014
     0.869859993         0.902400017         0.058350001
     0.869859993         0.902400017         0.196869999
     0.869859993         0.902400017         0.334500015
     0.869859993         0.902400017         0.470250010
     0.994859993         0.652400017         0.000000000
     0.994859993         0.652400017         0.141090006
     0.994859993         0.652400017         0.284370005
     0.994859993         0.652400017         0.432880014
     0.196060002         0.054800000         0.058350001
     0.195850000         0.054030001         0.204610005
     0.195219994         0.052660000         0.346700013
     0.191440001         0.045200001         0.489560008
     0.043660000         0.250000000         0.058350001
     0.043869998         0.250770003         0.204610005
     0.044500001         0.252139986         0.346700013
     0.048280001         0.259590000         0.489560008
     0.168660000         0.304800004         0.000000000
     0.169740006         0.302410007         0.135380000
     0.169290006         0.303110003         0.273829997
     0.170399994         0.300850004         0.414119989
     0.071060002         0.000000000         0.000000000
     0.069980003         0.002390000         0.135380000
     0.070430003         0.001690000         0.273829997
     0.069320001         0.003950000         0.414119989
     0.446060002         0.054800000         0.058350001
     0.445850015         0.054030001         0.204610005
     0.445219994         0.052660000         0.346700013
     0.441430002         0.045200001         0.489560008
     0.293660015         0.250000000         0.058350001
     0.293870002         0.250770003         0.204610005
     0.294499993         0.252139986         0.346700013
     0.298290014         0.259590000         0.489560008
     0.418660015         0.304800004         0.000000000
     0.419739991         0.302410007         0.135380000
     0.419290006         0.303110003         0.273829997
     0.420399994         0.300850004         0.414119989
     0.321060002         0.000000000         0.000000000
     0.319979995         0.002390000         0.135380000
     0.320430011         0.001690000         0.273829997
     0.319319993         0.003950000         0.414119989
     0.196060002         0.554799974         0.058350001
     0.195850000         0.554030001         0.204610005
     0.195219994         0.552659988         0.346700013
     0.191440001         0.545199990         0.489560008
     0.043660000         0.750000000         0.058350001
     0.043869998         0.750769973         0.204610005
     0.044500001         0.752139986         0.346700013
     0.048280001         0.759590030         0.489560008
     0.168660000         0.804799974         0.000000000
     0.169740006         0.802410007         0.135380000
     0.169290006         0.803110003         0.273829997
     0.170399994         0.800849974         0.414119989
     0.071060002         0.500000000         0.000000000
     0.069980003         0.502390027         0.135380000
     0.070430003         0.501689970         0.273829997
     0.069320001         0.503950000         0.414119989
     0.446060002         0.554799974         0.058350001
     0.445850015         0.554030001         0.204610005
     0.445219994         0.552659988         0.346700013
     0.441430002         0.545199990         0.489560008
     0.293660015         0.750000000         0.058350001
     0.293870002         0.750769973         0.204610005
     0.294499993         0.752139986         0.346700013
     0.298290014         0.759590030         0.489560008
     0.418660015         0.804799974         0.000000000
     0.419739991         0.802410007         0.135380000
     0.419290006         0.803110003         0.273829997
     0.420399994         0.800849974         0.414119989
     0.321060002         0.500000000         0.000000000
     0.319979995         0.502390027         0.135380000
     0.320430011         0.501689970         0.273829997
     0.319319993         0.503950000         0.414119989
     0.696060002         0.054800000         0.058350001
     0.695850015         0.054030001         0.204610005
     0.695219994         0.052660000         0.346700013
     0.691439986         0.045200001         0.489560008
     0.543659985         0.250000000         0.058350001
     0.543869972         0.250770003         0.204610005
     0.544499993         0.252139986         0.346700013
     0.548290014         0.259590000         0.489560008
     0.668659985         0.304800004         0.000000000
     0.669740021         0.302410007         0.135380000
     0.669290006         0.303110003         0.273829997
     0.670400023         0.300850004         0.414119989
     0.571060002         0.000000000         0.000000000
     0.569980025         0.002390000         0.135380000
     0.570429981         0.001690000         0.273829997
     0.569320023         0.003950000         0.414119989
     0.946060002         0.054800000         0.058350001
     0.945850015         0.054030001         0.204610005
     0.945219994         0.052660000         0.346700013
     0.941439986         0.045200001         0.489560008
     0.793659985         0.250000000         0.058350001
     0.793869972         0.250770003         0.204610005
     0.794499993         0.252139986         0.346700013
     0.798290014         0.259590000         0.489560008
     0.918659985         0.304800004         0.000000000
     0.919740021         0.302410007         0.135380000
     0.919290006         0.303110003         0.273829997
     0.920400023         0.300850004         0.414119989
     0.821060002         0.000000000         0.000000000
     0.819980025         0.002390000         0.135380000
     0.820429981         0.001690000         0.273829997
     0.819320023         0.003950000         0.414119989
     0.696060002         0.554799974         0.058350001
     0.695850015         0.554030001         0.204610005
     0.695219994         0.552659988         0.346700013
     0.691439986         0.545210004         0.489560008
     0.543659985         0.750000000         0.058350001
     0.543869972         0.750769973         0.204610005
     0.544499993         0.752139986         0.346700013
     0.548290014         0.759599984         0.489560008
     0.668659985         0.804799974         0.000000000
     0.669740021         0.802410007         0.135380000
     0.669290006         0.803110003         0.273829997
     0.670400023         0.800849974         0.414119989
     0.571060002         0.500000000         0.000000000
     0.569980025         0.502390027         0.135380000
     0.570429981         0.501689970         0.273829997
     0.569320023         0.503950000         0.414119989
     0.946060002         0.554799974         0.058350001
     0.945850015         0.554030001         0.204610005
     0.945219994         0.552659988         0.346700013
     0.941439986         0.545210004         0.489560008
     0.793659985         0.750000000         0.058350001
     0.793869972         0.750769973         0.204610005
     0.794499993         0.752139986         0.346700013
     0.798290014         0.759599984         0.489560008
     0.918659985         0.804799974         0.000000000
     0.919740021         0.802410007         0.135380000
     0.919290006         0.803110003         0.273829997
     0.920400023         0.800849974         0.414119989
     0.821060002         0.500000000         0.000000000
     0.819980025         0.502390027         0.135380000
     0.820429981         0.501689970         0.273829997
     0.819320023         0.503950000         0.414119989
     0.868049979         0.402130008         0.562309980
