TiO2_rutile\(0\1\0)                     
   1.00000000000000     
     5.8838864673198232   -0.0010510106824238    0.0037048480420757
    -0.0019735374550817    9.1476703430672526    0.0034851032974536
     0.0280934369831493    0.0288978070057530   34.9556686437932171
   Ti   O 
    32    65
Selective dynamics
Direct
  0.1078799960000012  0.2397200019999985  0.0843300000000013   F   F   F
  0.1058316481630048  0.2417199071804297  0.2191872283759312   T   T   T
  0.1093611707906733  0.2436517586707480  0.3549042189321417   T   T   T
  0.1036822519274827  0.2305024653582367  0.4897477437334505   T   T   T
  0.3578799960000012  0.4897199870000009  0.0236799999999988   F   F   F
  0.3574169665639344  0.4930437447029874  0.1525124428473330   T   T   T
  0.3554911659489410  0.4946139070456379  0.2861363415793796   T   T   T
  0.3540047493726993  0.4887925881610048  0.4248762927502535   T   T   T
  0.6078799960000012  0.2397200019999985  0.0843300000000013   F   F   F
  0.6062256564561946  0.2417356271763608  0.2191817716841170   T   T   T
  0.6000093531269083  0.2437076913227520  0.3549080404006926   T   T   T
  0.6033403188051102  0.2305043427779087  0.4897460154360356   T   T   T
  0.8578799960000012  0.4897199870000009  0.0236799999999988   F   F   F
  0.8574213904707013  0.4923005426450000  0.1522478885205511   T   T   T
  0.8554658097505876  0.4895118992659180  0.2882558930236266   T   T   T
  0.8540444086305299  0.4876606853843591  0.4241536971788307   T   T   T
  0.1078799960000012  0.7397199870000009  0.0843300000000013   F   F   F
  0.1042446565693610  0.7441395762218903  0.2193306558776187   T   T   T
  0.1049841565663640  0.7383026153184119  0.3543499230760172   T   T   T
  0.1017526125454649  0.7295057263363210  0.4915328882582442   T   T   T
  0.3578799960000012  0.9897199870000009  0.0236799999999988   F   F   F
  0.3573884308955495  0.9920746810354455  0.1523842444689497   T   T   T
  0.3553532215193959  0.9906607155902064  0.2878013811417359   T   T   T
  0.3540641207496296  0.9814801876888846  0.4252896169691182   T   T   T
  0.6078799960000012  0.7397199870000009  0.0843300000000013   F   F   F
  0.6082176436656489  0.7441651898536242  0.2193251888124300   T   T   T
  0.6041896108114642  0.7382957859686080  0.3543527387480385   T   T   T
  0.6054558941258389  0.7294837277566457  0.4915292280875596   T   T   T
  0.8578799960000012  0.9897199870000009  0.0236799999999988   F   F   F
  0.8574004049556052  0.9936068017603670  0.1517063519135881   T   T   T
  0.8553197140716479  0.9934133981093763  0.2886882072787103   T   T   T
  0.8541102654354837  0.9943529648146114  0.4205792604144317   T   T   T
  0.1078799960000012  0.3921200039999988  0.0000000000000000   F   F   F
  0.1072078926039547  0.3947734448312439  0.1271874093846049   T   T   T
  0.1057446959628151  0.3960359337766772  0.2620226435113537   T   T   T
  0.1039217734926904  0.3966536940181875  0.3977741275485697   T   T   T
  0.1078799960000012  0.0873199999999983  0.0473599990000011   F   F   F
  0.1066662142046316  0.1011226160451554  0.1769631801742642   T   T   T
  0.1049432146875881  0.1003117531855546  0.3131232902392506   T   T   T
  0.1014438356577807  0.0972671435196725  0.4497016889360831   T   T   T
  0.3578799960000012  0.3373199999999983  0.0606499980000024   F   F   F
  0.3566372595214079  0.3506044104741163  0.1943381032386504   T   T   T
  0.3550594094651938  0.3498629863066348  0.3297151070271913   T   T   T
  0.3537251577596351  0.3599650278165785  0.4667314680636700   T   T   T
  0.3578799960000012  0.1421200039999988  0.1080100009999967   F   F   F
  0.3560067169875967  0.1465388170753407  0.2449286497139475   T   T   T
  0.3545272051584865  0.1484041558496206  0.3809110910646778   T   T   T
  0.3532215295686804  0.1753469619385549  0.5183494364108510   T   T   T
  0.6078799960000012  0.3921200039999988  0.0000000000000000   F   F   F
  0.6075169366750071  0.3947769417445084  0.1271877829507675   T   T   T
  0.6056927834777808  0.3960392367714308  0.2620227210436106   T   T   T
  0.6046549033802655  0.3966801059297353  0.3977670008089358   T   T   T
  0.6078799960000012  0.0873199999999983  0.0473599990000011   F   F   F
  0.6071213110877693  0.1011321593709077  0.1769622634763273   T   T   T
  0.6056699672440835  0.1003200529328280  0.3131243905096019   T   T   T
  0.6063910419566074  0.0972681322262418  0.4497003419634663   T   T   T
  0.8578799960000012  0.3373199999999983  0.0606499980000024   F   F   F
  0.8566353593710994  0.3506933881514564  0.1943752695908487   T   T   T
  0.8550904627374695  0.3504274761562978  0.3297089778724393   T   T   T
  0.8537030181331462  0.3593656109092281  0.4656393081567384   T   T   T
  0.8578799960000012  0.1421200039999988  0.1080100009999967   F   F   F
  0.8560048956149034  0.1464665222748137  0.2449002693995914   T   T   T
  0.8545082319435888  0.1466187436694887  0.3810055053069930   T   T   T
  0.8532181198130047  0.1826529182724383  0.5190506549923245   T   T   T
  0.1078799960000012  0.8921200039999988  0.0000000000000000   F   F   F
  0.1071560572987019  0.8947806385460236  0.1271519219707949   T   T   T
  0.1058171086198064  0.8967297160918216  0.2620563373623542   T   T   T
  0.1058683742207669  0.8969050279988023  0.3978078528523692   T   T   T
  0.1078799960000012  0.5873200300000008  0.0473599990000011   F   F   F
  0.1071506035266343  0.6016519349570658  0.1771464732605572   T   T   T
  0.1055835291272595  0.5991436750072388  0.3126957138030967   T   T   T
  0.1073536729798775  0.6026976461155495  0.4483335174021895   T   T   T
  0.3578799960000012  0.8373200300000008  0.0606499980000024   F   F   F
  0.3566265848662404  0.8509737394870474  0.1943844844884947   T   T   T
  0.3550923377522255  0.8502022890092171  0.3295010032075092   T   T   T
  0.3537642350702579  0.8549945776178062  0.4666807140630155   T   T   T
  0.3578799960000012  0.6421200039999988  0.1080100009999967   F   F   F
  0.3560323115686979  0.6459642450197323  0.2450843819019830   T   T   T
  0.3544824227002110  0.6474169642635408  0.3801594427373343   T   T   T
  0.3532914077915132  0.6758308911012290  0.5198213410856006   T   T   T
  0.6078799960000012  0.8921200039999988  0.0000000000000000   F   F   F
  0.6075424643050816  0.8947804875489366  0.1271527898921981   T   T   T
  0.6056472432296908  0.8967344760087832  0.2620574338474673   T   T   T
  0.6027545315029232  0.8968782744940939  0.3978108533049626   T   T   T
  0.6078799960000012  0.5873200300000008  0.0473599990000011   F   F   F
  0.6066736337005391  0.6016552335931715  0.1771467525240860   T   T   T
  0.6049816294621591  0.5991315227029649  0.3126983533091355   T   T   T
  0.6004829126609026  0.6027039425172531  0.4483386361204207   T   T   T
  0.8578799960000012  0.8373200300000008  0.0606499980000024   F   F   F
  0.8566196933637140  0.8508557461687359  0.1943938008971802   T   T   T
  0.8550791586205226  0.8504093230274985  0.3295632728920342   T   T   T
  0.8537847207377471  0.8446175868878255  0.4623088537665523   T   T   T
  0.8578799960000012  0.6421200039999988  0.1080100009999967   F   F   F
  0.8560207223315848  0.6466131494704835  0.2449118765677371   T   T   T
  0.8545034824140956  0.6481748181240435  0.3802733219843353   T   T   T
  0.8533091290321779  0.6151225096785470  0.5115489459416808   T   T   T
  0.8535318453661074  0.8421852547476338  0.5230077746713714   T   T   T
 
  0.00000000E+00  0.00000000E+00  0.00000000E+00
  0.00000000E+00  0.00000000E+00  0.00000000E+00
  0.00000000E+00  0.00000000E+00  0.00000000E+00
  0.00000000E+00  0.00000000E+00  0.00000000E+00
  0.00000000E+00  0.00000000E+00  0.00000000E+00
  0.00000000E+00  0.00000000E+00  0.00000000E+00
  0.00000000E+00  0.00000000E+00  0.00000000E+00
  0.00000000E+00  0.00000000E+00  0.00000000E+00
  0.00000000E+00  0.00000000E+00  0.00000000E+00
  0.00000000E+00  0.00000000E+00  0.00000000E+00
  0.00000000E+00  0.00000000E+00  0.00000000E+00
  0.00000000E+00  0.00000000E+00  0.00000000E+00
  0.00000000E+00  0.00000000E+00  0.00000000E+00
  0.00000000E+00  0.00000000E+00  0.00000000E+00
  0.00000000E+00  0.00000000E+00  0.00000000E+00
  0.00000000E+00  0.00000000E+00  0.00000000E+00
  0.00000000E+00  0.00000000E+00  0.00000000E+00
  0.00000000E+00  0.00000000E+00  0.00000000E+00
  0.00000000E+00  0.00000000E+00  0.00000000E+00
  0.00000000E+00  0.00000000E+00  0.00000000E+00
  0.00000000E+00  0.00000000E+00  0.00000000E+00
  0.00000000E+00  0.00000000E+00  0.00000000E+00
  0.00000000E+00  0.00000000E+00  0.00000000E+00
  0.00000000E+00  0.00000000E+00  0.00000000E+00
  0.00000000E+00  0.00000000E+00  0.00000000E+00
  0.00000000E+00  0.00000000E+00  0.00000000E+00
  0.00000000E+00  0.00000000E+00  0.00000000E+00
  0.00000000E+00  0.00000000E+00  0.00000000E+00
  0.00000000E+00  0.00000000E+00  0.00000000E+00
  0.00000000E+00  0.00000000E+00  0.00000000E+00
  0.00000000E+00  0.00000000E+00  0.00000000E+00
  0.00000000E+00  0.00000000E+00  0.00000000E+00
  0.00000000E+00  0.00000000E+00  0.00000000E+00
  0.00000000E+00  0.00000000E+00  0.00000000E+00
  0.00000000E+00  0.00000000E+00  0.00000000E+00
  0.00000000E+00  0.00000000E+00  0.00000000E+00
  0.00000000E+00  0.00000000E+00  0.00000000E+00
  0.00000000E+00  0.00000000E+00  0.00000000E+00
  0.00000000E+00  0.00000000E+00  0.00000000E+00
  0.00000000E+00  0.00000000E+00  0.00000000E+00
  0.00000000E+00  0.00000000E+00  0.00000000E+00
  0.00000000E+00  0.00000000E+00  0.00000000E+00
  0.00000000E+00  0.00000000E+00  0.00000000E+00
  0.00000000E+00  0.00000000E+00  0.00000000E+00
  0.00000000E+00  0.00000000E+00  0.00000000E+00
  0.00000000E+00  0.00000000E+00  0.00000000E+00
  0.00000000E+00  0.00000000E+00  0.00000000E+00
  0.00000000E+00  0.00000000E+00  0.00000000E+00
  0.00000000E+00  0.00000000E+00  0.00000000E+00
  0.00000000E+00  0.00000000E+00  0.00000000E+00
  0.00000000E+00  0.00000000E+00  0.00000000E+00
  0.00000000E+00  0.00000000E+00  0.00000000E+00
  0.00000000E+00  0.00000000E+00  0.00000000E+00
  0.00000000E+00  0.00000000E+00  0.00000000E+00
  0.00000000E+00  0.00000000E+00  0.00000000E+00
  0.00000000E+00  0.00000000E+00  0.00000000E+00
  0.00000000E+00  0.00000000E+00  0.00000000E+00
  0.00000000E+00  0.00000000E+00  0.00000000E+00
  0.00000000E+00  0.00000000E+00  0.00000000E+00
  0.00000000E+00  0.00000000E+00  0.00000000E+00
  0.00000000E+00  0.00000000E+00  0.00000000E+00
  0.00000000E+00  0.00000000E+00  0.00000000E+00
  0.00000000E+00  0.00000000E+00  0.00000000E+00
  0.00000000E+00  0.00000000E+00  0.00000000E+00
  0.00000000E+00  0.00000000E+00  0.00000000E+00
  0.00000000E+00  0.00000000E+00  0.00000000E+00
  0.00000000E+00  0.00000000E+00  0.00000000E+00
  0.00000000E+00  0.00000000E+00  0.00000000E+00
  0.00000000E+00  0.00000000E+00  0.00000000E+00
  0.00000000E+00  0.00000000E+00  0.00000000E+00
  0.00000000E+00  0.00000000E+00  0.00000000E+00
  0.00000000E+00  0.00000000E+00  0.00000000E+00
  0.00000000E+00  0.00000000E+00  0.00000000E+00
  0.00000000E+00  0.00000000E+00  0.00000000E+00
  0.00000000E+00  0.00000000E+00  0.00000000E+00
  0.00000000E+00  0.00000000E+00  0.00000000E+00
  0.00000000E+00  0.00000000E+00  0.00000000E+00
  0.00000000E+00  0.00000000E+00  0.00000000E+00
  0.00000000E+00  0.00000000E+00  0.00000000E+00
  0.00000000E+00  0.00000000E+00  0.00000000E+00
  0.00000000E+00  0.00000000E+00  0.00000000E+00
  0.00000000E+00  0.00000000E+00  0.00000000E+00
  0.00000000E+00  0.00000000E+00  0.00000000E+00
  0.00000000E+00  0.00000000E+00  0.00000000E+00
  0.00000000E+00  0.00000000E+00  0.00000000E+00
  0.00000000E+00  0.00000000E+00  0.00000000E+00
  0.00000000E+00  0.00000000E+00  0.00000000E+00
  0.00000000E+00  0.00000000E+00  0.00000000E+00
  0.00000000E+00  0.00000000E+00  0.00000000E+00
  0.00000000E+00  0.00000000E+00  0.00000000E+00
  0.00000000E+00  0.00000000E+00  0.00000000E+00
  0.00000000E+00  0.00000000E+00  0.00000000E+00
  0.00000000E+00  0.00000000E+00  0.00000000E+00
  0.00000000E+00  0.00000000E+00  0.00000000E+00
  0.00000000E+00  0.00000000E+00  0.00000000E+00
  0.00000000E+00  0.00000000E+00  0.00000000E+00
  0.00000000E+00  0.00000000E+00  0.00000000E+00
