TiO2_rutile\(0\1\0)                     
   1.00000000000000     
     5.8936085504986240   -0.0059780117179757    0.0057309116725331
    -0.0096613307402837    9.1510962927815847    0.0245412411617550
     0.0385551794791557    0.1056039917736087   36.1514454185702974
   Ti   O     
    32    65     
Selective dynamics
Direct
  0.1078799960000012  0.2397200019999985  0.0843300000000013   F   F   F
  0.1077505631882641  0.2380892567755250  0.2142816399102586   T   T   T
  0.1054699811819343  0.2336673182783912  0.3449747854770812   T   T   T
  0.1047199018972309  0.2264083376688145  0.4748756999849063   T   T   T
  0.3578799960000012  0.4897199870000009  0.0236799999999988   F   F   F
  0.3587244558418806  0.4894863268785580  0.1497118149667365   T   T   T
  0.3569607035019524  0.4849337938528185  0.2801222975625053   T   T   T
  0.3538897955469940  0.4800174455622725  0.4113763237366023   T   T   T
  0.6078799960000012  0.2397200019999985  0.0843300000000013   F   F   F
  0.6083171501714401  0.2378767224229531  0.2143673140464802   T   T   T
  0.6050241118728924  0.2323303285851102  0.3444958677720676   T   T   T
  0.6078383766566333  0.2254366780956411  0.4749667183937573   T   T   T
  0.8578799960000012  0.4897199870000009  0.0236799999999988   F   F   F
  0.8584225361652655  0.4900866427295554  0.1496423716299012   T   T   T
  0.8570713109327254  0.4852432709962092  0.2802733023679115   T   T   T
  0.8510766626821404  0.4802035250678131  0.4104803570459061   T   T   T
  0.1078799960000012  0.7397199870000009  0.0843300000000013   F   F   F
  0.1082691912639288  0.7375543714271084  0.2143649761925280   T   T   T
  0.1061840631259244  0.7328476903041621  0.3446505899160290   T   T   T
  0.0809549019702544  0.7240559223907420  0.4739776980752402   T   T   T
  0.3578799960000012  0.9897199870000009  0.0236799999999988   F   F   F
  0.3585937083024275  0.9894287705997721  0.1497645588999468   T   T   T
  0.3563892015065329  0.9858507470149860  0.2800393305754411   T   T   T
  0.3497252983056914  0.9798733054921359  0.4113148551921536   T   T   T
  0.6078799960000012  0.7397199870000009  0.0843300000000013   F   F   F
  0.6083018854028006  0.7381551439253701  0.2145326038403567   T   T   T
  0.6050548449583069  0.7333939263491415  0.3444868756279382   T   T   T
  0.5812936425989785  0.7239471722596835  0.4759696586756741   T   T   T
  0.8578799960000012  0.9897199870000009  0.0236799999999988   F   F   F
  0.8585440016736839  0.9893406285363148  0.1497608399456504   T   T   T
  0.8574529958624920  0.9853713495133847  0.2802666446245647   T   T   T
  0.8497313217487616  0.9796266811221944  0.4109849860140755   T   T   T
  0.1078799960000012  0.3921200039999988  0.0000000000000000   F   F   F
  0.1072959135565037  0.3932201009315899  0.1250567992194879   T   T   T
  0.1058161200810868  0.3902573261252362  0.2552429439842654   T   T   T
  0.1025767113178905  0.3880623358581538  0.3860567208261855   T   T   T
  0.1078799960000012  0.0873199999999983  0.0473599990000011   F   F   F
  0.1067740650863874  0.0958400430042336  0.1738750512655756   T   T   T
  0.1054246687202540  0.0916852378340514  0.3045164896786445   T   T   T
  0.1036464133666570  0.0938069224995653  0.4348618281524397   T   T   T
  0.3578799960000012  0.3373199999999983  0.0606499980000024   F   F   F
  0.3568085818404204  0.3450387441258645  0.1900370271017819   T   T   T
  0.3549986360693189  0.3420089447324021  0.3203381268467924   T   T   T
  0.3586807952800752  0.3485814349654366  0.4525313154347735   T   T   T
  0.3578799960000012  0.1421200039999988  0.1080100009999967   F   F   F
  0.3559796160804392  0.1404925119813754  0.2391184758073298   T   T   T
  0.3539605865713986  0.1392661574252874  0.3696842777389029   T   T   T
  0.3573666357820950  0.1366833139004781  0.5001616328798730   T   T   T
  0.6078799960000012  0.3921200039999988  0.0000000000000000   F   F   F
  0.6072001125666399  0.3931583604553200  0.1250585963735359   T   T   T
  0.6059340668095795  0.3902725408293355  0.2552508471351430   T   T   T
  0.6015150900464126  0.3881560691301175  0.3860411028350018   T   T   T
  0.6078799960000012  0.0873199999999983  0.0473599990000011   F   F   F
  0.6068528665688959  0.0958556125125023  0.1738770787359277   T   T   T
  0.6052796148491355  0.0917813221090494  0.3044905535574894   T   T   T
  0.6046945015358099  0.0934853236708362  0.4349071512105612   T   T   T
  0.8578799960000012  0.3373199999999983  0.0606499980000024   F   F   F
  0.8568523251356958  0.3449412491281116  0.1900186602824370   T   T   T
  0.8549279893210493  0.3421916285786560  0.3203821921792485   T   T   T
  0.8574526465500937  0.3481502864281095  0.4518475511605167   T   T   T
  0.8578799960000012  0.1421200039999988  0.1080100009999967   F   F   F
  0.8559592928928792  0.1406124750774192  0.2391371252653664   T   T   T
  0.8536696818673407  0.1392449431592235  0.3696374651730012   T   T   T
  0.8586092498457180  0.1474539363176638  0.5002794899729265   T   T   T
  0.1078799960000012  0.8921200039999988  0.0000000000000000   F   F   F
  0.1073008476101971  0.8932048839574046  0.1251149541877607   T   T   T
  0.1058350693194657  0.8900577711179304  0.2553429879191087   T   T   T
  0.1031834995923056  0.8887441696084756  0.3860437262353188   T   T   T
  0.1078799960000012  0.5873200300000008  0.0473599990000011   F   F   F
  0.1067947323431290  0.5957873215788781  0.1738908304642852   T   T   T
  0.1053700735785239  0.5919427057830799  0.3044274157984796   T   T   T
  0.0990118526692286  0.5932960485444919  0.4343581600400681   T   T   T
  0.3578799960000012  0.8373200300000008  0.0606499980000024   F   F   F
  0.3567296501310889  0.8451057460026835  0.1901196845934185   T   T   T
  0.3551165926417353  0.8419959293875268  0.3203455519319846   T   T   T
  0.3449503413894668  0.8480048644717965  0.4522007015963251   T   T   T
  0.3578799960000012  0.6421200039999988  0.1080100009999967   F   F   F
  0.3559354205294990  0.6403387482734397  0.2390969895794929   T   T   T
  0.3535927810646577  0.6390231418441621  0.3695248466420679   T   T   T
  0.3337528194879119  0.6415183985161168  0.5000132237724494   T   T   T
  0.6078799960000012  0.8921200039999988  0.0000000000000000   F   F   F
  0.6071996053932111  0.8932162494845881  0.1251151955292022   T   T   T
  0.6058712400195873  0.8901216998384167  0.2553245958920884   T   T   T
  0.6020504043600756  0.8887284999487455  0.3861379716606696   T   T   T
  0.6078799960000012  0.5873200300000008  0.0473599990000011   F   F   F
  0.6068740917219563  0.5957458431140278  0.1738913181254656   T   T   T
  0.6053412134852514  0.5919307247994476  0.3044426278016118   T   T   T
  0.5989010986973226  0.5934808593333312  0.4345388283336310   T   T   T
  0.8578799960000012  0.8373200300000008  0.0606499980000024   F   F   F
  0.8568445946604236  0.8450509616902646  0.1900996000486763   T   T   T
  0.8547165519295746  0.8422827730751877  0.3204052758487084   T   T   T
  0.8475600275819309  0.8475007637114043  0.4517319743055449   T   T   T
  0.8578799960000012  0.6421200039999988  0.1080100009999967   F   F   F
  0.8559830971832401  0.6404211536441459  0.2391101224142381   T   T   T
  0.8535821380534243  0.6388051346045746  0.3695079627300665   T   T   T
  0.8363206638191418  0.6412069888494510  0.4997092537434881   T   T   T
  0.5960824193755773  0.8886878290679551  0.5200397457997916   T   T   T


 
  0.00000000E+00  0.00000000E+00  0.00000000E+00
  0.00000000E+00  0.00000000E+00  0.00000000E+00
  0.00000000E+00  0.00000000E+00  0.00000000E+00
  0.00000000E+00  0.00000000E+00  0.00000000E+00
  0.00000000E+00  0.00000000E+00  0.00000000E+00
  0.00000000E+00  0.00000000E+00  0.00000000E+00
  0.00000000E+00  0.00000000E+00  0.00000000E+00
  0.00000000E+00  0.00000000E+00  0.00000000E+00
  0.00000000E+00  0.00000000E+00  0.00000000E+00
  0.00000000E+00  0.00000000E+00  0.00000000E+00
  0.00000000E+00  0.00000000E+00  0.00000000E+00
  0.00000000E+00  0.00000000E+00  0.00000000E+00
  0.00000000E+00  0.00000000E+00  0.00000000E+00
  0.00000000E+00  0.00000000E+00  0.00000000E+00
  0.00000000E+00  0.00000000E+00  0.00000000E+00
  0.00000000E+00  0.00000000E+00  0.00000000E+00
  0.00000000E+00  0.00000000E+00  0.00000000E+00
  0.00000000E+00  0.00000000E+00  0.00000000E+00
  0.00000000E+00  0.00000000E+00  0.00000000E+00
  0.00000000E+00  0.00000000E+00  0.00000000E+00
  0.00000000E+00  0.00000000E+00  0.00000000E+00
  0.00000000E+00  0.00000000E+00  0.00000000E+00
  0.00000000E+00  0.00000000E+00  0.00000000E+00
  0.00000000E+00  0.00000000E+00  0.00000000E+00
  0.00000000E+00  0.00000000E+00  0.00000000E+00
  0.00000000E+00  0.00000000E+00  0.00000000E+00
  0.00000000E+00  0.00000000E+00  0.00000000E+00
  0.00000000E+00  0.00000000E+00  0.00000000E+00
  0.00000000E+00  0.00000000E+00  0.00000000E+00
  0.00000000E+00  0.00000000E+00  0.00000000E+00
  0.00000000E+00  0.00000000E+00  0.00000000E+00
  0.00000000E+00  0.00000000E+00  0.00000000E+00
  0.00000000E+00  0.00000000E+00  0.00000000E+00
  0.00000000E+00  0.00000000E+00  0.00000000E+00
  0.00000000E+00  0.00000000E+00  0.00000000E+00
  0.00000000E+00  0.00000000E+00  0.00000000E+00
  0.00000000E+00  0.00000000E+00  0.00000000E+00
  0.00000000E+00  0.00000000E+00  0.00000000E+00
  0.00000000E+00  0.00000000E+00  0.00000000E+00
  0.00000000E+00  0.00000000E+00  0.00000000E+00
  0.00000000E+00  0.00000000E+00  0.00000000E+00
  0.00000000E+00  0.00000000E+00  0.00000000E+00
  0.00000000E+00  0.00000000E+00  0.00000000E+00
  0.00000000E+00  0.00000000E+00  0.00000000E+00
  0.00000000E+00  0.00000000E+00  0.00000000E+00
  0.00000000E+00  0.00000000E+00  0.00000000E+00
  0.00000000E+00  0.00000000E+00  0.00000000E+00
  0.00000000E+00  0.00000000E+00  0.00000000E+00
  0.00000000E+00  0.00000000E+00  0.00000000E+00
  0.00000000E+00  0.00000000E+00  0.00000000E+00
  0.00000000E+00  0.00000000E+00  0.00000000E+00
  0.00000000E+00  0.00000000E+00  0.00000000E+00
  0.00000000E+00  0.00000000E+00  0.00000000E+00
  0.00000000E+00  0.00000000E+00  0.00000000E+00
  0.00000000E+00  0.00000000E+00  0.00000000E+00
  0.00000000E+00  0.00000000E+00  0.00000000E+00
  0.00000000E+00  0.00000000E+00  0.00000000E+00
  0.00000000E+00  0.00000000E+00  0.00000000E+00
  0.00000000E+00  0.00000000E+00  0.00000000E+00
  0.00000000E+00  0.00000000E+00  0.00000000E+00
  0.00000000E+00  0.00000000E+00  0.00000000E+00
  0.00000000E+00  0.00000000E+00  0.00000000E+00
  0.00000000E+00  0.00000000E+00  0.00000000E+00
  0.00000000E+00  0.00000000E+00  0.00000000E+00
  0.00000000E+00  0.00000000E+00  0.00000000E+00
  0.00000000E+00  0.00000000E+00  0.00000000E+00
  0.00000000E+00  0.00000000E+00  0.00000000E+00
  0.00000000E+00  0.00000000E+00  0.00000000E+00
  0.00000000E+00  0.00000000E+00  0.00000000E+00
  0.00000000E+00  0.00000000E+00  0.00000000E+00
  0.00000000E+00  0.00000000E+00  0.00000000E+00
  0.00000000E+00  0.00000000E+00  0.00000000E+00
  0.00000000E+00  0.00000000E+00  0.00000000E+00
  0.00000000E+00  0.00000000E+00  0.00000000E+00
  0.00000000E+00  0.00000000E+00  0.00000000E+00
  0.00000000E+00  0.00000000E+00  0.00000000E+00
  0.00000000E+00  0.00000000E+00  0.00000000E+00
  0.00000000E+00  0.00000000E+00  0.00000000E+00
  0.00000000E+00  0.00000000E+00  0.00000000E+00
  0.00000000E+00  0.00000000E+00  0.00000000E+00
  0.00000000E+00  0.00000000E+00  0.00000000E+00
  0.00000000E+00  0.00000000E+00  0.00000000E+00
  0.00000000E+00  0.00000000E+00  0.00000000E+00
  0.00000000E+00  0.00000000E+00  0.00000000E+00
  0.00000000E+00  0.00000000E+00  0.00000000E+00
  0.00000000E+00  0.00000000E+00  0.00000000E+00
  0.00000000E+00  0.00000000E+00  0.00000000E+00
  0.00000000E+00  0.00000000E+00  0.00000000E+00
  0.00000000E+00  0.00000000E+00  0.00000000E+00
  0.00000000E+00  0.00000000E+00  0.00000000E+00
  0.00000000E+00  0.00000000E+00  0.00000000E+00
  0.00000000E+00  0.00000000E+00  0.00000000E+00
  0.00000000E+00  0.00000000E+00  0.00000000E+00
  0.00000000E+00  0.00000000E+00  0.00000000E+00
  0.00000000E+00  0.00000000E+00  0.00000000E+00
  0.00000000E+00  0.00000000E+00  0.00000000E+00
  0.00000000E+00  0.00000000E+00  0.00000000E+00
  0.00000000E+00  0.00000000E+00  0.00000000E+00
  0.00000000E+00  0.00000000E+00  0.00000000E+00
  0.00000000E+00  0.00000000E+00  0.00000000E+00
  0.00000000E+00  0.00000000E+00  0.00000000E+00
  0.00000000E+00  0.00000000E+00  0.00000000E+00
  0.00000000E+00  0.00000000E+00  0.00000000E+00
  0.00000000E+00  0.00000000E+00  0.00000000E+00
  0.00000000E+00  0.00000000E+00  0.00000000E+00
  0.00000000E+00  0.00000000E+00  0.00000000E+00
  0.00000000E+00  0.00000000E+00  0.00000000E+00
  0.00000000E+00  0.00000000E+00  0.00000000E+00
