CONTCAR                                 
   1.00000000000000     
     5.9033919446424523   -0.0009425653228084    0.0004901826159828
     0.0097380738680750    9.1337657146539364   -0.0024514322202190
     0.0159236224885348   -0.0912688677758042   34.4507602654117235
   Ti   O    H 
    32    67     1
Selective dynamics
Direct
  0.1078799960000012  0.2397200019999985  0.0843300000000013   F   F   F
  0.1031519410462020  0.2470405510463882  0.2191406206492372   T   T   T
  0.1041809610035521  0.2404291616136305  0.3571647294081590   T   T   T
  0.1273155384824773  0.2186357699611848  0.4977184674645053   T   T   T
  0.3578799960000012  0.4897199870000009  0.0236799999999988   F   F   F
  0.3564767082038670  0.4951948516811370  0.1523200476515038   T   T   T
  0.3554981514462590  0.4888828244034891  0.2891228851590361   T   T   T
  0.3498363547809527  0.4852472803503215  0.4273608499319098   T   T   T
  0.6078799960000012  0.2397200019999985  0.0843300000000013   F   F   F
  0.6084051886135231  0.2475192246623380  0.2188345970501637   T   T   T
  0.6055930391005957  0.2441108917173656  0.3584477370407501   T   T   T
  0.5908168128172777  0.2233742201566444  0.4969232601439407   T   T   T
  0.8578799960000012  0.4897199870000009  0.0236799999999988   F   F   F
  0.8573372299559946  0.4971148646401600  0.1515813559141234   T   T   T
  0.8547324885263035  0.4925522926795254  0.2896732483932878   T   T   T
  0.8570596917154230  0.5170631712518000  0.4200775162082481   T   T   T
  0.1078799960000012  0.7397199870000009  0.0843300000000013   F   F   F
  0.1048781950356231  0.7449769485424531  0.2208669893298457   T   T   T
  0.1070397687229507  0.7536001541701833  0.3534209910678875   T   T   T
  0.0990677793224460  0.7449036700678417  0.4992391795842962   T   T   T
  0.3578799960000012  0.9897199870000009  0.0236799999999988   F   F   F
  0.3568600780014224  0.9926728591338877  0.1527074724776939   T   T   T
  0.3551629205096309  0.0046932186972612  0.2859334881848814   T   T   T
  0.3553987414867590  0.9853095941356774  0.4266781646745015   T   T   T
  0.6078799960000012  0.7397199870000009  0.0843300000000013   F   F   F
  0.6048160895891871  0.7433554533554272  0.2203959910475386   T   T   T
  0.5898938655227927  0.7463886345901031  0.3556282705434766   T   T   T
  0.5948098651729089  0.7299042245649514  0.4949836670003651   T   T   T
  0.8578799960000012  0.9897199870000009  0.0236799999999988   F   F   F
  0.8570633553848310  0.9917825257449923  0.1525435710442364   T   T   T
  0.8519361422992794  0.9979581544973758  0.2885374371104114   T   T   T
  0.8556172507868789  0.9833699981078364  0.4273870396017263   T   T   T
  0.1078799960000012  0.3921200039999988  0.0000000000000000   F   F   F
  0.1072663089913683  0.3953937653873865  0.1271820771702997   T   T   T
  0.1074045618516187  0.3971835598170973  0.2626593828909649   T   T   T
  0.0991543082625801  0.3941758744517718  0.3998465604002606   T   T   T
  0.1078799960000012  0.0873199999999983  0.0473599990000011   F   F   F
  0.1074406922733225  0.1027896834853527  0.1773239057487569   T   T   T
  0.1079725876369603  0.1010797471261298  0.3135895365199450   T   T   T
  0.1017900288143066  0.0997316452362971  0.4521402826938243   T   T   T
  0.3578799960000012  0.3373199999999983  0.0606499980000024   F   F   F
  0.3570157779151541  0.3520696522522572  0.1947179550299228   T   T   T
  0.3569748250000228  0.3517167746176950  0.3310463584283157   T   T   T
  0.3566611339882038  0.3327595776710392  0.4644268673124494   T   T   T
  0.3578799960000012  0.1421200039999988  0.1080100009999967   F   F   F
  0.3568545308398071  0.1479472182102176  0.2452916500256269   T   T   T
  0.3561082001305133  0.1482021904994806  0.3825142995871568   T   T   T
  0.3658616589200323  0.0950181593327535  0.5173235494899804   T   T   T
  0.6078799960000012  0.3921200039999988  0.0000000000000000   F   F   F
  0.6078204223944488  0.3955058612914701  0.1271873964374393   T   T   T
  0.6061277674636243  0.3971353402724951  0.2626717752598293   T   T   T
  0.6143926488922460  0.3935518802275252  0.3998003319293486   T   T   T
  0.6078799960000012  0.0873199999999983  0.0473599990000011   F   F   F
  0.6069643678028422  0.1027694486866152  0.1773344131787168   T   T   T
  0.6053147583694726  0.1007564216406522  0.3135601886378372   T   T   T
  0.6127922832493040  0.1006753368701359  0.4518502907499750   T   T   T
  0.8578799960000012  0.3373199999999983  0.0606499980000024   F   F   F
  0.8568095207306042  0.3521180015611770  0.1947153492985464   T   T   T
  0.8570719069618314  0.3508875092158231  0.3306486373328272   T   T   T
  0.8578799960000012  0.1421200039999988  0.1080100009999967   F   F   F
  0.8570015188628022  0.1484174334358826  0.2454252548210054   T   T   T
  0.8570187998557417  0.1455122728880640  0.3814742782234893   T   T   T
  0.8588250918186895  0.1583506420838292  0.5247636614480387   T   T   T
  0.1078799960000012  0.8921200039999988  0.0000000000000000   F   F   F
  0.1074499715998384  0.8947413569300919  0.1271466486213060   T   T   T
  0.1067891828692473  0.8980512853164722  0.2623789383328687   T   T   T
  0.1098947329978219  0.8986405437507670  0.3987893962400222   T   T   T
  0.1078799960000012  0.5873200300000008  0.0473599990000011   F   F   F
  0.1069707941648707  0.6020521286418620  0.1772707849520942   T   T   T
  0.1054445514082157  0.6018994229816210  0.3140238676201577   T   T   T
  0.1029739885159641  0.5869846822520142  0.4524693933091981   T   T   T
  0.3578799960000012  0.8373200300000008  0.0606499980000024   F   F   F
  0.3573315672177536  0.8513791442024301  0.1945498149284095   T   T   T
  0.3561638165760841  0.8516686608627727  0.3302755875055370   T   T   T
  0.3552098874113410  0.8487336022153245  0.4672769865983599   T   T   T
  0.3578799960000012  0.6421200039999988  0.1080100009999967   F   F   F
  0.3569783620428845  0.6474299295377409  0.2457785270373913   T   T   T
  0.3570267984863834  0.6479071231933634  0.3818943245737976   T   T   T
  0.3494182443440873  0.6547109619780891  0.5202943179339754   T   T   T
  0.6078799960000012  0.8921200039999988  0.0000000000000000   F   F   F
  0.6077014597140896  0.8947878285202326  0.1271356431096022   T   T   T
  0.6070501060575152  0.8980746446364493  0.2624248709245814   T   T   T
  0.6033395971075526  0.8987385727383131  0.3987291612320362   T   T   T
  0.6078799960000012  0.5873200300000008  0.0473599990000011   F   F   F
  0.6074122931861070  0.6021641371899725  0.1772778384455753   T   T   T
  0.6079444131902838  0.6016155760693438  0.3140482430460609   T   T   T
  0.6088296813076574  0.5843784103457328  0.4519445773369621   T   T   T
  0.8578799960000012  0.8373200300000008  0.0606499980000024   F   F   F
  0.8570947551250504  0.8515351229427327  0.1946014820332803   T   T   T
  0.8568822513830888  0.8522315902696789  0.3305518376933047   T   T   T
  0.8535042437911219  0.8423852364461044  0.4648610045915709   T   T   T
  0.8578799960000012  0.6421200039999988  0.1080100009999967   F   F   F
  0.8567610404709823  0.6468475581365647  0.2455991927444566   T   T   T
  0.8568851386690738  0.6521782402141547  0.3820514811223614   T   T   T
  0.8503868176147960  0.6379933299782178  0.5183548991065768   T   T   T
  0.3581777996094118  0.3180455026496297  0.5307899988509729   T   T   T
  0.0588112445830527  0.8971074721469574  0.5354121386607084   T   T   T
  0.6845224822029299  0.8459770869271244  0.5405130065714654   T   T   T
  0.8605478108679733  0.3505195385538185  0.4983341548871219   T   T   T
  0.0270652530998657  0.9278841145384000  0.5618996706276284   T   T   T
 
  0.00000000E+00  0.00000000E+00  0.00000000E+00
  0.00000000E+00  0.00000000E+00  0.00000000E+00
  0.00000000E+00  0.00000000E+00  0.00000000E+00
  0.00000000E+00  0.00000000E+00  0.00000000E+00
  0.00000000E+00  0.00000000E+00  0.00000000E+00
  0.00000000E+00  0.00000000E+00  0.00000000E+00
  0.00000000E+00  0.00000000E+00  0.00000000E+00
  0.00000000E+00  0.00000000E+00  0.00000000E+00
  0.00000000E+00  0.00000000E+00  0.00000000E+00
  0.00000000E+00  0.00000000E+00  0.00000000E+00
  0.00000000E+00  0.00000000E+00  0.00000000E+00
  0.00000000E+00  0.00000000E+00  0.00000000E+00
  0.00000000E+00  0.00000000E+00  0.00000000E+00
  0.00000000E+00  0.00000000E+00  0.00000000E+00
  0.00000000E+00  0.00000000E+00  0.00000000E+00
  0.00000000E+00  0.00000000E+00  0.00000000E+00
  0.00000000E+00  0.00000000E+00  0.00000000E+00
  0.00000000E+00  0.00000000E+00  0.00000000E+00
  0.00000000E+00  0.00000000E+00  0.00000000E+00
  0.00000000E+00  0.00000000E+00  0.00000000E+00
  0.00000000E+00  0.00000000E+00  0.00000000E+00
  0.00000000E+00  0.00000000E+00  0.00000000E+00
  0.00000000E+00  0.00000000E+00  0.00000000E+00
  0.00000000E+00  0.00000000E+00  0.00000000E+00
  0.00000000E+00  0.00000000E+00  0.00000000E+00
  0.00000000E+00  0.00000000E+00  0.00000000E+00
  0.00000000E+00  0.00000000E+00  0.00000000E+00
  0.00000000E+00  0.00000000E+00  0.00000000E+00
  0.00000000E+00  0.00000000E+00  0.00000000E+00
  0.00000000E+00  0.00000000E+00  0.00000000E+00
  0.00000000E+00  0.00000000E+00  0.00000000E+00
  0.00000000E+00  0.00000000E+00  0.00000000E+00
  0.00000000E+00  0.00000000E+00  0.00000000E+00
  0.00000000E+00  0.00000000E+00  0.00000000E+00
  0.00000000E+00  0.00000000E+00  0.00000000E+00
  0.00000000E+00  0.00000000E+00  0.00000000E+00
  0.00000000E+00  0.00000000E+00  0.00000000E+00
  0.00000000E+00  0.00000000E+00  0.00000000E+00
  0.00000000E+00  0.00000000E+00  0.00000000E+00
  0.00000000E+00  0.00000000E+00  0.00000000E+00
  0.00000000E+00  0.00000000E+00  0.00000000E+00
  0.00000000E+00  0.00000000E+00  0.00000000E+00
  0.00000000E+00  0.00000000E+00  0.00000000E+00
  0.00000000E+00  0.00000000E+00  0.00000000E+00
  0.00000000E+00  0.00000000E+00  0.00000000E+00
  0.00000000E+00  0.00000000E+00  0.00000000E+00
  0.00000000E+00  0.00000000E+00  0.00000000E+00
  0.00000000E+00  0.00000000E+00  0.00000000E+00
  0.00000000E+00  0.00000000E+00  0.00000000E+00
  0.00000000E+00  0.00000000E+00  0.00000000E+00
  0.00000000E+00  0.00000000E+00  0.00000000E+00
  0.00000000E+00  0.00000000E+00  0.00000000E+00
  0.00000000E+00  0.00000000E+00  0.00000000E+00
  0.00000000E+00  0.00000000E+00  0.00000000E+00
  0.00000000E+00  0.00000000E+00  0.00000000E+00
  0.00000000E+00  0.00000000E+00  0.00000000E+00
  0.00000000E+00  0.00000000E+00  0.00000000E+00
  0.00000000E+00  0.00000000E+00  0.00000000E+00
  0.00000000E+00  0.00000000E+00  0.00000000E+00
  0.00000000E+00  0.00000000E+00  0.00000000E+00
  0.00000000E+00  0.00000000E+00  0.00000000E+00
  0.00000000E+00  0.00000000E+00  0.00000000E+00
  0.00000000E+00  0.00000000E+00  0.00000000E+00
  0.00000000E+00  0.00000000E+00  0.00000000E+00
  0.00000000E+00  0.00000000E+00  0.00000000E+00
  0.00000000E+00  0.00000000E+00  0.00000000E+00
  0.00000000E+00  0.00000000E+00  0.00000000E+00
  0.00000000E+00  0.00000000E+00  0.00000000E+00
  0.00000000E+00  0.00000000E+00  0.00000000E+00
  0.00000000E+00  0.00000000E+00  0.00000000E+00
  0.00000000E+00  0.00000000E+00  0.00000000E+00
  0.00000000E+00  0.00000000E+00  0.00000000E+00
  0.00000000E+00  0.00000000E+00  0.00000000E+00
  0.00000000E+00  0.00000000E+00  0.00000000E+00
  0.00000000E+00  0.00000000E+00  0.00000000E+00
  0.00000000E+00  0.00000000E+00  0.00000000E+00
  0.00000000E+00  0.00000000E+00  0.00000000E+00
  0.00000000E+00  0.00000000E+00  0.00000000E+00
  0.00000000E+00  0.00000000E+00  0.00000000E+00
  0.00000000E+00  0.00000000E+00  0.00000000E+00
  0.00000000E+00  0.00000000E+00  0.00000000E+00
  0.00000000E+00  0.00000000E+00  0.00000000E+00
  0.00000000E+00  0.00000000E+00  0.00000000E+00
  0.00000000E+00  0.00000000E+00  0.00000000E+00
  0.00000000E+00  0.00000000E+00  0.00000000E+00
  0.00000000E+00  0.00000000E+00  0.00000000E+00
  0.00000000E+00  0.00000000E+00  0.00000000E+00
  0.00000000E+00  0.00000000E+00  0.00000000E+00
  0.00000000E+00  0.00000000E+00  0.00000000E+00
  0.00000000E+00  0.00000000E+00  0.00000000E+00
  0.00000000E+00  0.00000000E+00  0.00000000E+00
  0.00000000E+00  0.00000000E+00  0.00000000E+00
  0.00000000E+00  0.00000000E+00  0.00000000E+00
  0.00000000E+00  0.00000000E+00  0.00000000E+00
  0.00000000E+00  0.00000000E+00  0.00000000E+00
  0.00000000E+00  0.00000000E+00  0.00000000E+00
  0.00000000E+00  0.00000000E+00  0.00000000E+00
  0.00000000E+00  0.00000000E+00  0.00000000E+00
  0.00000000E+00  0.00000000E+00  0.00000000E+00
  0.00000000E+00  0.00000000E+00  0.00000000E+00
