CONTCAR\(2)                             
   1.00000000000000     
     5.9046066927013063   -0.0009963545278050   -0.0001585006091309
     0.0096128794782059    9.1398920138054205    0.0060801530647705
     0.0118789556367603   -0.0592788765405354   34.3472025589526524
   Ti   O    H 
    32    68     1
Selective dynamics
Direct
  0.1078799960000012  0.2397200019999985  0.0843300000000013   F   F   F
  0.1034988138622970  0.2490128026144906  0.2198313028288965   T   T   T
  0.1059111797114093  0.2384760144629887  0.3575104735944225   T   T   T
  0.1398814401355380  0.2158185261587252  0.5002528826142564   T   T   T
  0.3578799960000012  0.4897199870000009  0.0236799999999988   F   F   F
  0.3577397479908644  0.4938161456270579  0.1525737878711160   T   T   T
  0.3563573297635927  0.4902108678684327  0.2897032899378038   T   T   T
  0.3622770733163828  0.4694507080559744  0.4278772400439039   T   T   T
  0.6078799960000012  0.2397200019999985  0.0843300000000013   F   F   F
  0.6111053619256850  0.2487724291308179  0.2200689750538448   T   T   T
  0.6070101726998378  0.2362557270575396  0.3562964533635072   T   T   T
  0.5786687154424073  0.2201367786606623  0.5008387201912667   T   T   T
  0.8578799960000012  0.4897199870000009  0.0236799999999988   F   F   F
  0.8571351917603656  0.4964558756005606  0.1514319140160245   T   T   T
  0.8571599461057069  0.4964048054634101  0.2909608636639325   T   T   T
  0.8532735699688953  0.5112261002674562  0.4190887219119914   T   T   T
  0.1078799960000012  0.7397199870000009  0.0843300000000013   F   F   F
  0.1064573718270343  0.7419561179000261  0.2201781540108050   T   T   T
  0.1183293669496689  0.7521809301528966  0.3566688253952355   T   T   T
  0.0991293548051548  0.7199384965059759  0.4926481113317330   T   T   T
  0.3578799960000012  0.9897199870000009  0.0236799999999988   F   F   F
  0.3574848529585407  0.9941630435985505  0.1531316880687426   T   T   T
  0.3556491989432257  0.0024303577490351  0.2854531021439766   T   T   T
  0.3572384342379611  0.9852972826653388  0.4274155027229468   T   T   T
  0.6078799960000012  0.7397199870000009  0.0843300000000013   F   F   F
  0.6064861923537253  0.7429214185507159  0.2205307427189659   T   T   T
  0.5973994178592877  0.7530018805511216  0.3559514950951617   T   T   T
  0.5981630316480584  0.7318789966489350  0.4967034891295768   T   T   T
  0.8578799960000012  0.9897199870000009  0.0236799999999988   F   F   F
  0.8573093033760690  0.9925528080811635  0.1527807245073743   T   T   T
  0.8579012440518108  0.9924445489204488  0.2890663077964620   T   T   T
  0.8557202037814937  0.9908767869806757  0.4294208665922492   T   T   T
  0.1078799960000012  0.3921200039999988  0.0000000000000000   F   F   F
  0.1072282255446375  0.3954725516961571  0.1272352871617157   T   T   T
  0.1076521507147724  0.3975953606893018  0.2631885582860114   T   T   T
  0.1000501065205090  0.3918118727955061  0.4003236580881433   T   T   T
  0.1078799960000012  0.0873199999999983  0.0473599990000011   F   F   F
  0.1077009729979253  0.1030830639644410  0.1777164063110867   T   T   T
  0.1077114849643988  0.0995478871142036  0.3138824846187054   T   T   T
  0.1021828285631508  0.0997080540506104  0.4531168000248061   T   T   T
  0.3578799960000012  0.3373199999999983  0.0606499980000024   F   F   F
  0.3569959125254252  0.3526356137725507  0.1949137411893406   T   T   T
  0.3564360391478980  0.3503321778591874  0.3316283667592032   T   T   T
  0.3590586151209319  0.3258597398292880  0.4649243471631072   T   T   T
  0.3578799960000012  0.1421200039999988  0.1080100009999967   F   F   F
  0.3569900366886505  0.1480256332800571  0.2457248703720782   T   T   T
  0.3571403940119150  0.1460201684817258  0.3828272641011202   T   T   T
  0.3657019640217896  0.0726691469543118  0.5140470311912638   T   T   T
  0.6078799960000012  0.3921200039999988  0.0000000000000000   F   F   F
  0.6080108977473474  0.3953964612480861  0.1272295564634537   T   T   T
  0.6058954774449384  0.3976744088328795  0.2631711516685988   T   T   T
  0.6138318083940496  0.3914204412431385  0.3996557974932800   T   T   T
  0.6078799960000012  0.0873199999999983  0.0473599990000011   F   F   F
  0.6068750019484506  0.1030673857850714  0.1777042430059629   T   T   T
  0.6053305392091737  0.0996667602884721  0.3137218847481940   T   T   T
  0.6138895154285101  0.0995387195165376  0.4531255298310585   T   T   T
  0.8578799960000012  0.3373199999999983  0.0606499980000024   F   F   F
  0.8570571518900199  0.3527328168021453  0.1949566156999453   T   T   T
  0.8566397219581335  0.3494405585696520  0.3312005891369320   T   T   T
  0.8578799960000012  0.1421200039999988  0.1080100009999967   F   F   F
  0.8570420808708942  0.1487576167646094  0.2458156337271847   T   T   T
  0.8563680955894396  0.1447801115471273  0.3823244606889030   T   T   T
  0.8636984035304920  0.1913210829425683  0.5292670580200548   T   T   T
  0.1078799960000012  0.8921200039999988  0.0000000000000000   F   F   F
  0.1073893629737048  0.8949995535408835  0.1273309276015121   T   T   T
  0.1067817159817353  0.8974861363574654  0.2626524891062829   T   T   T
  0.1071008666669400  0.8988891729320968  0.3995943245397283   T   T   T
  0.1078799960000012  0.5873200300000008  0.0473599990000011   F   F   F
  0.1068793294174244  0.6019770514736680  0.1773531876115387   T   T   T
  0.1053621948256014  0.6019195691377750  0.3147823661286169   T   T   T
  0.1012309652607467  0.5788951450833929  0.4533210344789840   T   T   T
  0.3578799960000012  0.8373200300000008  0.0606499980000024   F   F   F
  0.3569945191899134  0.8509215392557086  0.1949013601773031   T   T   T
  0.3567258189069806  0.8526787982554184  0.3309070739334039   T   T   T
  0.3547621325386896  0.8410562085656181  0.4657771520391224   T   T   T
  0.3578799960000012  0.6421200039999988  0.1080100009999967   F   F   F
  0.3569472339016803  0.6474966632709246  0.2461919975236171   T   T   T
  0.3559844207079741  0.6497984682755376  0.3824408548258388   T   T   T
  0.3435973306920244  0.6649521247170339  0.5219456366392002   T   T   T
  0.6078799960000012  0.8921200039999988  0.0000000000000000   F   F   F
  0.6079087327556489  0.8949500619569116  0.1273413765816366   T   T   T
  0.6067691063561347  0.8975915969043093  0.2626360745717843   T   T   T
  0.6075673340748963  0.8981857381587652  0.3998602442859847   T   T   T
  0.6078799960000012  0.5873200300000008  0.0473599990000011   F   F   F
  0.6076604655285777  0.6019577970712713  0.1773599297377469   T   T   T
  0.6075797962159061  0.6017914713674626  0.3149055169693212   T   T   T
  0.6126499550630100  0.5792730069944187  0.4528337000579619   T   T   T
  0.8578799960000012  0.8373200300000008  0.0606499980000024   F   F   F
  0.8572427242567375  0.8511435012035140  0.1949921790897283   T   T   T
  0.8556880720109201  0.8520174531787141  0.3309876298012549   T   T   T
  0.8593692990871258  0.8477065309777310  0.4684177003211444   T   T   T
  0.8578799960000012  0.6421200039999988  0.1080100009999967   F   F   F
  0.8570061374704053  0.6468425049865277  0.2460477664173153   T   T   T
  0.8566319330800348  0.6507865514015428  0.3824819523192439   T   T   T
  0.8532981671825592  0.6411563868177750  0.5195705907081301   T   T   T
  0.3583583519210328  0.3100317393828789  0.5329283063965637   T   T   T
  1.0148513106681851  0.9218062233982531  0.5456761607892150   T   T   T
  0.6760310660010818  0.8392332088192938  0.5437447591243552   T   T   T
  0.8598857162611830  0.3394208608158355  0.4969931513028786   T   T   T
  0.0408482658597909  0.8976934814812269  0.5847360245238457   T   T   T
  0.1921151238344980  0.9393661099449938  0.5904643950935238   T   T   T
 
  0.00000000E+00  0.00000000E+00  0.00000000E+00
  0.00000000E+00  0.00000000E+00  0.00000000E+00
  0.00000000E+00  0.00000000E+00  0.00000000E+00
  0.00000000E+00  0.00000000E+00  0.00000000E+00
  0.00000000E+00  0.00000000E+00  0.00000000E+00
  0.00000000E+00  0.00000000E+00  0.00000000E+00
  0.00000000E+00  0.00000000E+00  0.00000000E+00
  0.00000000E+00  0.00000000E+00  0.00000000E+00
  0.00000000E+00  0.00000000E+00  0.00000000E+00
  0.00000000E+00  0.00000000E+00  0.00000000E+00
  0.00000000E+00  0.00000000E+00  0.00000000E+00
  0.00000000E+00  0.00000000E+00  0.00000000E+00
  0.00000000E+00  0.00000000E+00  0.00000000E+00
  0.00000000E+00  0.00000000E+00  0.00000000E+00
  0.00000000E+00  0.00000000E+00  0.00000000E+00
  0.00000000E+00  0.00000000E+00  0.00000000E+00
  0.00000000E+00  0.00000000E+00  0.00000000E+00
  0.00000000E+00  0.00000000E+00  0.00000000E+00
  0.00000000E+00  0.00000000E+00  0.00000000E+00
  0.00000000E+00  0.00000000E+00  0.00000000E+00
  0.00000000E+00  0.00000000E+00  0.00000000E+00
  0.00000000E+00  0.00000000E+00  0.00000000E+00
  0.00000000E+00  0.00000000E+00  0.00000000E+00
  0.00000000E+00  0.00000000E+00  0.00000000E+00
  0.00000000E+00  0.00000000E+00  0.00000000E+00
  0.00000000E+00  0.00000000E+00  0.00000000E+00
  0.00000000E+00  0.00000000E+00  0.00000000E+00
  0.00000000E+00  0.00000000E+00  0.00000000E+00
  0.00000000E+00  0.00000000E+00  0.00000000E+00
  0.00000000E+00  0.00000000E+00  0.00000000E+00
  0.00000000E+00  0.00000000E+00  0.00000000E+00
  0.00000000E+00  0.00000000E+00  0.00000000E+00
  0.00000000E+00  0.00000000E+00  0.00000000E+00
  0.00000000E+00  0.00000000E+00  0.00000000E+00
  0.00000000E+00  0.00000000E+00  0.00000000E+00
  0.00000000E+00  0.00000000E+00  0.00000000E+00
  0.00000000E+00  0.00000000E+00  0.00000000E+00
  0.00000000E+00  0.00000000E+00  0.00000000E+00
  0.00000000E+00  0.00000000E+00  0.00000000E+00
  0.00000000E+00  0.00000000E+00  0.00000000E+00
  0.00000000E+00  0.00000000E+00  0.00000000E+00
  0.00000000E+00  0.00000000E+00  0.00000000E+00
  0.00000000E+00  0.00000000E+00  0.00000000E+00
  0.00000000E+00  0.00000000E+00  0.00000000E+00
  0.00000000E+00  0.00000000E+00  0.00000000E+00
  0.00000000E+00  0.00000000E+00  0.00000000E+00
  0.00000000E+00  0.00000000E+00  0.00000000E+00
  0.00000000E+00  0.00000000E+00  0.00000000E+00
  0.00000000E+00  0.00000000E+00  0.00000000E+00
  0.00000000E+00  0.00000000E+00  0.00000000E+00
  0.00000000E+00  0.00000000E+00  0.00000000E+00
  0.00000000E+00  0.00000000E+00  0.00000000E+00
  0.00000000E+00  0.00000000E+00  0.00000000E+00
  0.00000000E+00  0.00000000E+00  0.00000000E+00
  0.00000000E+00  0.00000000E+00  0.00000000E+00
  0.00000000E+00  0.00000000E+00  0.00000000E+00
  0.00000000E+00  0.00000000E+00  0.00000000E+00
  0.00000000E+00  0.00000000E+00  0.00000000E+00
  0.00000000E+00  0.00000000E+00  0.00000000E+00
  0.00000000E+00  0.00000000E+00  0.00000000E+00
  0.00000000E+00  0.00000000E+00  0.00000000E+00
  0.00000000E+00  0.00000000E+00  0.00000000E+00
  0.00000000E+00  0.00000000E+00  0.00000000E+00
  0.00000000E+00  0.00000000E+00  0.00000000E+00
  0.00000000E+00  0.00000000E+00  0.00000000E+00
  0.00000000E+00  0.00000000E+00  0.00000000E+00
  0.00000000E+00  0.00000000E+00  0.00000000E+00
  0.00000000E+00  0.00000000E+00  0.00000000E+00
  0.00000000E+00  0.00000000E+00  0.00000000E+00
  0.00000000E+00  0.00000000E+00  0.00000000E+00
  0.00000000E+00  0.00000000E+00  0.00000000E+00
  0.00000000E+00  0.00000000E+00  0.00000000E+00
  0.00000000E+00  0.00000000E+00  0.00000000E+00
  0.00000000E+00  0.00000000E+00  0.00000000E+00
  0.00000000E+00  0.00000000E+00  0.00000000E+00
  0.00000000E+00  0.00000000E+00  0.00000000E+00
  0.00000000E+00  0.00000000E+00  0.00000000E+00
  0.00000000E+00  0.00000000E+00  0.00000000E+00
  0.00000000E+00  0.00000000E+00  0.00000000E+00
  0.00000000E+00  0.00000000E+00  0.00000000E+00
  0.00000000E+00  0.00000000E+00  0.00000000E+00
  0.00000000E+00  0.00000000E+00  0.00000000E+00
  0.00000000E+00  0.00000000E+00  0.00000000E+00
  0.00000000E+00  0.00000000E+00  0.00000000E+00
  0.00000000E+00  0.00000000E+00  0.00000000E+00
  0.00000000E+00  0.00000000E+00  0.00000000E+00
  0.00000000E+00  0.00000000E+00  0.00000000E+00
  0.00000000E+00  0.00000000E+00  0.00000000E+00
  0.00000000E+00  0.00000000E+00  0.00000000E+00
  0.00000000E+00  0.00000000E+00  0.00000000E+00
  0.00000000E+00  0.00000000E+00  0.00000000E+00
  0.00000000E+00  0.00000000E+00  0.00000000E+00
  0.00000000E+00  0.00000000E+00  0.00000000E+00
  0.00000000E+00  0.00000000E+00  0.00000000E+00
  0.00000000E+00  0.00000000E+00  0.00000000E+00
  0.00000000E+00  0.00000000E+00  0.00000000E+00
  0.00000000E+00  0.00000000E+00  0.00000000E+00
  0.00000000E+00  0.00000000E+00  0.00000000E+00
  0.00000000E+00  0.00000000E+00  0.00000000E+00
  0.00000000E+00  0.00000000E+00  0.00000000E+00
  0.00000000E+00  0.00000000E+00  0.00000000E+00
