CONTCAR                                 
   1.00000000000000     
     5.8965831702884062    0.0017629589281742   -0.0011130302089462
    -0.0009661704410492    9.1449990900935365   -0.0282684579359791
     0.0442843236767284   -0.0727533453797324   34.1052840921397333
   Ti   O 
    32    66
Selective dynamics
Direct
  0.1078799960000012  0.2397200019999985  0.0843300000000013   F   F   F
  0.1051003476910798  0.2546275153542229  0.2205142548545356   T   T   T
  0.1043881350684262  0.2428407346189589  0.3630279961146384   T   T   T
  0.1237187877848409  0.2309091288174915  0.5052308936276237   T   T   T
  0.3578799960000012  0.4897199870000009  0.0236799999999988   F   F   F
  0.3560039799416007  0.4985806827786073  0.1526117057597637   T   T   T
  0.3565176012593523  0.4877156018650932  0.2937398004716762   T   T   T
  0.3675494738770098  0.4919417456190337  0.4289501982295659   T   T   T
  0.6078799960000012  0.2397200019999985  0.0843300000000013   F   F   F
  0.6094573222547091  0.2539326421305269  0.2206450503710434   T   T   T
  0.6054685653196120  0.2352852382794385  0.3618029392889441   T   T   T
  0.5861425528312846  0.2313683546254723  0.5053794749569621   T   T   T
  0.8578799960000012  0.4897199870000009  0.0236799999999988   F   F   F
  0.8552831514837328  0.5002363034448434  0.1519755456965285   T   T   T
  0.8563943281631399  0.4907551600999364  0.2945186935596408   T   T   T
  0.8548077014707172  0.4620341240052148  0.4378262849019118   T   T   T
  0.1078799960000012  0.7397199870000009  0.0843300000000013   F   F   F
  0.1065479737399487  0.7426115159096364  0.2229828372160748   T   T   T
  0.1249468231644123  0.7623037285085401  0.3581607697317812   T   T   T
  0.0893824332669482  0.7160776133588280  0.4991778549018701   T   T   T
  0.3578799960000012  0.9897199870000009  0.0236799999999988   F   F   F
  0.3572819227446610  0.9925545687682016  0.1543449849461587   T   T   T
  0.3554733042821370  0.0118043271829556  0.2867366730841449   T   T   T
  0.3545999881676900  0.9803589610933195  0.4355948642257081   T   T   T
  0.6078799960000012  0.7397199870000009  0.0843300000000013   F   F   F
  0.6070423000569164  0.7441351650869719  0.2233909236733901   T   T   T
  0.5875717004002868  0.7629478809088317  0.3580688482156109   T   T   T
  0.5984027982070976  0.7350097372308751  0.5071552816752882   T   T   T
  0.8578799960000012  0.9897199870000009  0.0236799999999988   F   F   F
  0.8573162327662697  0.9921847249495194  0.1541876385956147   T   T   T
  0.8585201394244361  0.0050366726886126  0.2893391876362313   T   T   T
  0.8547043831037452  0.9824899420633519  0.4349160909985712   T   T   T
  0.1078799960000012  0.3921200039999988  0.0000000000000000   F   F   F
  0.1070217377686717  0.3965889201968669  0.1280154480253655   T   T   T
  0.1095666609001784  0.3983520521329702  0.2650434908380881   T   T   T
  0.0930192316788879  0.4001799642512833  0.4014677233600274   T   T   T
  0.1078799960000012  0.0873199999999983  0.0473599990000011   F   F   F
  0.1072214471867805  0.1048850238677079  0.1788798389562401   T   T   T
  0.1057480808264816  0.0968020591205066  0.3166002198172064   T   T   T
  0.1059150736615115  0.0919657172784719  0.4549224803212739   T   T   T
  0.3578799960000012  0.3373199999999983  0.0606499980000024   F   F   F
  0.3570401330422403  0.3538870918779974  0.1962159255008714   T   T   T
  0.3559664527773163  0.3466899199003099  0.3338583512978135   T   T   T
  0.3545877345042291  0.3359772172273550  0.4684764539789126   T   T   T
  0.3578799960000012  0.1421200039999988  0.1080100009999967   F   F   F
  0.3567697346657165  0.1505966784642117  0.2471042216346382   T   T   T
  0.3547245098166502  0.1427370040712862  0.3855808402995083   T   T   T
  0.3548172137943082  0.0988578327928147  0.5191407473613585   T   T   T
  0.6078799960000012  0.3921200039999988  0.0000000000000000   F   F   F
  0.6079950313266550  0.3965042294125264  0.1279945453898037   T   T   T
  0.6033455109749806  0.3985227897599063  0.2650159920007921   T   T   T
  0.6157682113291799  0.3967429403151492  0.4017373315774652   T   T   T
  0.6078799960000012  0.0873199999999983  0.0473599990000011   F   F   F
  0.6071656094819594  0.1049492515733353  0.1788570014821459   T   T   T
  0.6060030999205658  0.0963127682279446  0.3167510234121180   T   T   T
  0.6035526109991336  0.0914859830544092  0.4550645775450735   T   T   T
  0.8578799960000012  0.3373199999999983  0.0606499980000024   F   F   F
  0.8570401973973276  0.3545077670605017  0.1964520021922462   T   T   T
  0.8552589629688984  0.3431069215390363  0.3328974319176274   T   T   T
  0.8544498361977078  0.3290660882670072  0.4748620807059014   T   T   T
  0.8578799960000012  0.1421200039999988  0.1080100009999967   F   F   F
  0.8564728827339489  0.1493462264743026  0.2479349020036430   T   T   T
  0.8553513925405226  0.1423963177747725  0.3856650894088614   T   T   T
  0.8547905009279060  0.1107418098764514  0.5248068654595888   T   T   T
  0.1078799960000012  0.8921200039999988  0.0000000000000000   F   F   F
  0.1074006846194523  0.8947917500986050  0.1281139250357093   T   T   T
  0.1064586302009988  0.8977727660388969  0.2650988561462448   T   T   T
  0.0988870528870738  0.8811679680288657  0.4033051051642255   T   T   T
  0.1078799960000012  0.5873200300000008  0.0473599990000011   F   F   F
  0.1074400489627935  0.6030863394955924  0.1785444154023654   T   T   T
  0.0999101861155367  0.5973361585381023  0.3194776763679062   T   T   T
  0.1035362219896858  0.5911391363076810  0.4542969523607259   T   T   T
  0.3578799960000012  0.8373200300000008  0.0606499980000024   F   F   F
  0.3570042850503464  0.8521960329071478  0.1964129694416874   T   T   T
  0.3559966518339344  0.8568013225844359  0.3331620673512378   T   T   T
  0.3528167992733592  0.8426287049518979  0.4738694571910803   T   T   T
  0.3578799960000012  0.6421200039999988  0.1080100009999967   F   F   F
  0.3565241694726831  0.6494045900445524  0.2488828281219441   T   T   T
  0.3554412993891183  0.6477964543675353  0.3840484276264987   T   T   T
  0.3276181374710236  0.6663467416486311  0.5292776591318175   T   T   T
  0.6078799960000012  0.8921200039999988  0.0000000000000000   F   F   F
  0.6077203977869120  0.8947791814880273  0.1281219774188279   T   T   T
  0.6062760707167177  0.8977282142788892  0.2651508986989450   T   T   T
  0.6115964836309454  0.8814439087564699  0.4032795695036580   T   T   T
  0.6078799960000012  0.5873200300000008  0.0473599990000011   F   F   F
  0.6071670266400465  0.6029829485465895  0.1785388999431210   T   T   T
  0.6121148038631391  0.5972076478188277  0.3195650356690226   T   T   T
  0.6069304564122732  0.5901887147032533  0.4536709822944706   T   T   T
  0.8578799960000012  0.8373200300000008  0.0606499980000024   F   F   F
  0.8570880566622427  0.8524824557049081  0.1965376166431847   T   T   T
  0.8561035586063684  0.8386741870866157  0.3358897470210691   T   T   T
  0.8566934447550288  0.8460460233971123  0.4737215600743876   T   T   T
  0.8578799960000012  0.6421200039999988  0.1080100009999967   F   F   F
  0.8568012568647195  0.6474978463496840  0.2481360455168001   T   T   T
  0.8463632977913966  0.6063922719629210  0.5187953200787346   T   T   T
  0.3546562810369414  0.3455677844710170  0.5336724409539529   T   T   T
  0.7551200137606430  0.8108257691797344  0.5473179541997152   T   T   T
  0.8551340755731847  0.2518831498770794  0.5450823549461966   T   T   T
 
  0.00000000E+00  0.00000000E+00  0.00000000E+00
  0.00000000E+00  0.00000000E+00  0.00000000E+00
  0.00000000E+00  0.00000000E+00  0.00000000E+00
  0.00000000E+00  0.00000000E+00  0.00000000E+00
  0.00000000E+00  0.00000000E+00  0.00000000E+00
  0.00000000E+00  0.00000000E+00  0.00000000E+00
  0.00000000E+00  0.00000000E+00  0.00000000E+00
  0.00000000E+00  0.00000000E+00  0.00000000E+00
  0.00000000E+00  0.00000000E+00  0.00000000E+00
  0.00000000E+00  0.00000000E+00  0.00000000E+00
  0.00000000E+00  0.00000000E+00  0.00000000E+00
  0.00000000E+00  0.00000000E+00  0.00000000E+00
  0.00000000E+00  0.00000000E+00  0.00000000E+00
  0.00000000E+00  0.00000000E+00  0.00000000E+00
  0.00000000E+00  0.00000000E+00  0.00000000E+00
  0.00000000E+00  0.00000000E+00  0.00000000E+00
  0.00000000E+00  0.00000000E+00  0.00000000E+00
  0.00000000E+00  0.00000000E+00  0.00000000E+00
  0.00000000E+00  0.00000000E+00  0.00000000E+00
  0.00000000E+00  0.00000000E+00  0.00000000E+00
  0.00000000E+00  0.00000000E+00  0.00000000E+00
  0.00000000E+00  0.00000000E+00  0.00000000E+00
  0.00000000E+00  0.00000000E+00  0.00000000E+00
  0.00000000E+00  0.00000000E+00  0.00000000E+00
  0.00000000E+00  0.00000000E+00  0.00000000E+00
  0.00000000E+00  0.00000000E+00  0.00000000E+00
  0.00000000E+00  0.00000000E+00  0.00000000E+00
  0.00000000E+00  0.00000000E+00  0.00000000E+00
  0.00000000E+00  0.00000000E+00  0.00000000E+00
  0.00000000E+00  0.00000000E+00  0.00000000E+00
  0.00000000E+00  0.00000000E+00  0.00000000E+00
  0.00000000E+00  0.00000000E+00  0.00000000E+00
  0.00000000E+00  0.00000000E+00  0.00000000E+00
  0.00000000E+00  0.00000000E+00  0.00000000E+00
  0.00000000E+00  0.00000000E+00  0.00000000E+00
  0.00000000E+00  0.00000000E+00  0.00000000E+00
  0.00000000E+00  0.00000000E+00  0.00000000E+00
  0.00000000E+00  0.00000000E+00  0.00000000E+00
  0.00000000E+00  0.00000000E+00  0.00000000E+00
  0.00000000E+00  0.00000000E+00  0.00000000E+00
  0.00000000E+00  0.00000000E+00  0.00000000E+00
  0.00000000E+00  0.00000000E+00  0.00000000E+00
  0.00000000E+00  0.00000000E+00  0.00000000E+00
  0.00000000E+00  0.00000000E+00  0.00000000E+00
  0.00000000E+00  0.00000000E+00  0.00000000E+00
  0.00000000E+00  0.00000000E+00  0.00000000E+00
  0.00000000E+00  0.00000000E+00  0.00000000E+00
  0.00000000E+00  0.00000000E+00  0.00000000E+00
  0.00000000E+00  0.00000000E+00  0.00000000E+00
  0.00000000E+00  0.00000000E+00  0.00000000E+00
  0.00000000E+00  0.00000000E+00  0.00000000E+00
  0.00000000E+00  0.00000000E+00  0.00000000E+00
  0.00000000E+00  0.00000000E+00  0.00000000E+00
  0.00000000E+00  0.00000000E+00  0.00000000E+00
  0.00000000E+00  0.00000000E+00  0.00000000E+00
  0.00000000E+00  0.00000000E+00  0.00000000E+00
  0.00000000E+00  0.00000000E+00  0.00000000E+00
  0.00000000E+00  0.00000000E+00  0.00000000E+00
  0.00000000E+00  0.00000000E+00  0.00000000E+00
  0.00000000E+00  0.00000000E+00  0.00000000E+00
  0.00000000E+00  0.00000000E+00  0.00000000E+00
  0.00000000E+00  0.00000000E+00  0.00000000E+00
  0.00000000E+00  0.00000000E+00  0.00000000E+00
  0.00000000E+00  0.00000000E+00  0.00000000E+00
  0.00000000E+00  0.00000000E+00  0.00000000E+00
  0.00000000E+00  0.00000000E+00  0.00000000E+00
  0.00000000E+00  0.00000000E+00  0.00000000E+00
  0.00000000E+00  0.00000000E+00  0.00000000E+00
  0.00000000E+00  0.00000000E+00  0.00000000E+00
  0.00000000E+00  0.00000000E+00  0.00000000E+00
  0.00000000E+00  0.00000000E+00  0.00000000E+00
  0.00000000E+00  0.00000000E+00  0.00000000E+00
  0.00000000E+00  0.00000000E+00  0.00000000E+00
  0.00000000E+00  0.00000000E+00  0.00000000E+00
  0.00000000E+00  0.00000000E+00  0.00000000E+00
  0.00000000E+00  0.00000000E+00  0.00000000E+00
  0.00000000E+00  0.00000000E+00  0.00000000E+00
  0.00000000E+00  0.00000000E+00  0.00000000E+00
  0.00000000E+00  0.00000000E+00  0.00000000E+00
  0.00000000E+00  0.00000000E+00  0.00000000E+00
  0.00000000E+00  0.00000000E+00  0.00000000E+00
  0.00000000E+00  0.00000000E+00  0.00000000E+00
  0.00000000E+00  0.00000000E+00  0.00000000E+00
  0.00000000E+00  0.00000000E+00  0.00000000E+00
  0.00000000E+00  0.00000000E+00  0.00000000E+00
  0.00000000E+00  0.00000000E+00  0.00000000E+00
  0.00000000E+00  0.00000000E+00  0.00000000E+00
  0.00000000E+00  0.00000000E+00  0.00000000E+00
  0.00000000E+00  0.00000000E+00  0.00000000E+00
  0.00000000E+00  0.00000000E+00  0.00000000E+00
  0.00000000E+00  0.00000000E+00  0.00000000E+00
  0.00000000E+00  0.00000000E+00  0.00000000E+00
  0.00000000E+00  0.00000000E+00  0.00000000E+00
  0.00000000E+00  0.00000000E+00  0.00000000E+00
  0.00000000E+00  0.00000000E+00  0.00000000E+00
  0.00000000E+00  0.00000000E+00  0.00000000E+00
  0.00000000E+00  0.00000000E+00  0.00000000E+00
  0.00000000E+00  0.00000000E+00  0.00000000E+00
