CONTCAR\(2)                             
   1.00000000000000     
     5.9074933525814437    0.0019079876944965   -0.0025315093584772
    -0.0014201556662348    9.1480675000790423    0.0133252580469823
     0.0107508593287549   -0.2265534932065358   33.9733347958608931
   Ti   O    H 
    32    67     1
Selective dynamics
Direct
  0.1078799960000012  0.2397200019999985  0.0843300000000013   F   F   F
  0.1054870422354505  0.2539884997057204  0.2204197928920091   T   T   T
  0.1064061082725668  0.2367103929910064  0.3637346547335213   T   T   T
  0.1214855021967089  0.2297128167887741  0.5044971262046339   T   T   T
  0.3578799960000012  0.4897199870000009  0.0236799999999988   F   F   F
  0.3538893463129746  0.4997343310826141  0.1527356011275559   T   T   T
  0.3569646136988880  0.4853299253885388  0.2945510526821413   T   T   T
  0.3508908664523416  0.5063509453445141  0.4294100430179499   T   T   T
  0.6078799960000012  0.2397200019999985  0.0843300000000013   F   F   F
  0.6088303834949108  0.2542919875532395  0.2203922299267353   T   T   T
  0.6072149805040370  0.2394567115792490  0.3640689891066701   T   T   T
  0.5913829645027388  0.2296348712713847  0.5043893492208360   T   T   T
  0.8578799960000012  0.4897199870000009  0.0236799999999988   F   F   F
  0.8541441038484645  0.5001992089969373  0.1520884490521237   T   T   T
  0.8571389482745423  0.4874843470058323  0.2950738763956453   T   T   T
  0.8564400649171497  0.4622121226436737  0.4372636003691441   T   T   T
  0.1078799960000012  0.7397199870000009  0.0843300000000013   F   F   F
  0.1061390919905465  0.7435778762383148  0.2239273119556768   T   T   T
  0.1245902471275549  0.7628277647815400  0.3578639546056956   T   T   T
  0.1074150327748254  0.7386311706923638  0.5098313843472223   T   T   T
  0.3578799960000012  0.9897199870000009  0.0236799999999988   F   F   F
  0.3574820805376984  0.9914762381311708  0.1545173014635925   T   T   T
  0.3575297474382909  0.0128758954686104  0.2871497368268245   T   T   T
  0.3569509732702582  0.9766160887185729  0.4364709528755457   T   T   T
  0.6078799960000012  0.7397199870000009  0.0843300000000013   F   F   F
  0.6066127498622693  0.7430033319226130  0.2237928867621752   T   T   T
  0.5891276131286332  0.7617048108688783  0.3581091705313566   T   T   T
  0.6063828627413307  0.7202887827051733  0.5045630706594603   T   T   T
  0.8578799960000012  0.9897199870000009  0.0236799999999988   F   F   F
  0.8574463202422017  0.9912521713197374  0.1544164952573063   T   T   T
  0.8564406674035656  0.0076953698220915  0.2893566073636748   T   T   T
  0.8574336459172811  0.9753454115400089  0.4363165869588940   T   T   T
  0.1078799960000012  0.3921200039999988  0.0000000000000000   F   F   F
  0.1072087691586182  0.3966705673551701  0.1280275303201761   T   T   T
  0.1102003109122103  0.3989943797633680  0.2654670669900163   T   T   T
  0.0998372020719707  0.3950014691482120  0.4018699342106622   T   T   T
  0.1078799960000012  0.0873199999999983  0.0473599990000011   F   F   F
  0.1075868775680748  0.1051209111745617  0.1790238454624287   T   T   T
  0.1072590697981758  0.0954418257026361  0.3169519562313179   T   T   T
  0.1085964324496452  0.0899672619396283  0.4561943496215519   T   T   T
  0.3578799960000012  0.3373199999999983  0.0606499980000024   F   F   F
  0.3574143635350643  0.3542027467387592  0.1964068403523009   T   T   T
  0.3570538950418419  0.3443185727102880  0.3340127437653579   T   T   T
  0.3566098217087726  0.3343018667048497  0.4695004542013790   T   T   T
  0.3578799960000012  0.1421200039999988  0.1080100009999967   F   F   F
  0.3573236150021810  0.1514922195192495  0.2472910405586958   T   T   T
  0.3572475454217549  0.1392428818563546  0.3862762412303601   T   T   T
  0.3572316952455997  0.1057914804582188  0.5213175438099239   T   T   T
  0.6078799960000012  0.3921200039999988  0.0000000000000000   F   F   F
  0.6081450889873268  0.3966462738162921  0.1280259912450848   T   T   T
  0.6044001755569712  0.3989982679600019  0.2654725611131949   T   T   T
  0.6151768225618033  0.3952730008919666  0.4016564589775816   T   T   T
  0.6078799960000012  0.0873199999999983  0.0473599990000011   F   F   F
  0.6076956487053968  0.1050760704756581  0.1790383580299230   T   T   T
  0.6073095436987739  0.0957550982019316  0.3168195828882789   T   T   T
  0.6060955250978661  0.0892683020888202  0.4562227121798761   T   T   T
  0.8578799960000012  0.3373199999999983  0.0606499980000024   F   F   F
  0.8573925336567274  0.3547791834486660  0.1966282240696769   T   T   T
  0.8576302138956865  0.3413169251943018  0.3332780594164466   T   T   T
  0.8565739242181027  0.3310913857858354  0.4756338148282445   T   T   T
  0.8578799960000012  0.1421200039999988  0.1080100009999967   F   F   F
  0.8574876567903454  0.1503459532197412  0.2480939845845070   T   T   T
  0.8572559469610037  0.1398374839236272  0.3863949082904847   T   T   T
  0.8553667997957685  0.1086501974917130  0.5244879513977166   T   T   T
  0.1078799960000012  0.8921200039999988  0.0000000000000000   F   F   F
  0.1076235192104778  0.8949039148338945  0.1281227081845460   T   T   T
  0.1072097331004995  0.8976617942239737  0.2652685551064722   T   T   T
  0.1013147030434616  0.8794409480384366  0.4043339839027644   T   T   T
  0.1078799960000012  0.5873200300000008  0.0473599990000011   F   F   F
  0.1081308573784116  0.6029574394520791  0.1786955774056409   T   T   T
  0.1005350880178565  0.5972890393146608  0.3204151558760777   T   T   T
  0.0987561392931839  0.5907013208365549  0.4529092615305503   T   T   T
  0.3578799960000012  0.8373200300000008  0.0606499980000024   F   F   F
  0.3576606326334310  0.8521192423837861  0.1964651978522290   T   T   T
  0.3578159195640267  0.8563370668262320  0.3334010270345861   T   T   T
  0.3564674989610616  0.8426037803379585  0.4757509536737495   T   T   T
  0.3578799960000012  0.6421200039999988  0.1080100009999967   F   F   F
  0.3575262797136598  0.6494814558537566  0.2492816972051665   T   T   T
  0.3558199650299054  0.6480431785448229  0.3845949695023071   T   T   T
  0.3554061566806747  0.6255206887879231  0.5231354999853632   T   T   T
  0.6078799960000012  0.8921200039999988  0.0000000000000000   F   F   F
  0.6078082585206316  0.8948926903640529  0.1281251986039885   T   T   T
  0.6075700682567563  0.8978295131728310  0.2651919030699255   T   T   T
  0.6138988663959057  0.8782740317287611  0.4046078679223106   T   T   T
  0.6078799960000012  0.5873200300000008  0.0473599990000011   F   F   F
  0.6076349315112796  0.6029928688896486  0.1786740402746684   T   T   T
  0.6139439101131992  0.5969264757114702  0.3205477475089451   T   T   T
  0.6135182654153793  0.5909585303722732  0.4524458853383136   T   T   T
  0.8578799960000012  0.8373200300000008  0.0606499980000024   F   F   F
  0.8577846748197574  0.8523165133970718  0.1965557633230378   T   T   T
  0.8563675372056943  0.8393759019721350  0.3366827449625863   T   T   T
  0.8611384958370347  0.8438534047531209  0.4759501899210200   T   T   T
  0.8578799960000012  0.6421200039999988  0.1080100009999967   F   F   F
  0.8572872754774167  0.6475666850154497  0.2485127437047847   T   T   T
  0.8569302561530981  0.6210867615701976  0.5233544820188787   T   T   T
  0.3550281752023179  0.3466810827139866  0.5331825682490776   T   T   T
  0.1063967567019354  0.8576252746765977  0.5523628410793603   T   T   T
  0.6530149530744069  0.8340968385326549  0.5499071263167211   T   T   T
  0.8554990130226483  0.2474978791127052  0.5453820919551008   T   T   T
  0.9645791375050541  0.8896316608049782  0.5649359184383873   T   T   T
 
  0.00000000E+00  0.00000000E+00  0.00000000E+00
  0.00000000E+00  0.00000000E+00  0.00000000E+00
  0.00000000E+00  0.00000000E+00  0.00000000E+00
  0.00000000E+00  0.00000000E+00  0.00000000E+00
  0.00000000E+00  0.00000000E+00  0.00000000E+00
  0.00000000E+00  0.00000000E+00  0.00000000E+00
  0.00000000E+00  0.00000000E+00  0.00000000E+00
  0.00000000E+00  0.00000000E+00  0.00000000E+00
  0.00000000E+00  0.00000000E+00  0.00000000E+00
  0.00000000E+00  0.00000000E+00  0.00000000E+00
  0.00000000E+00  0.00000000E+00  0.00000000E+00
  0.00000000E+00  0.00000000E+00  0.00000000E+00
  0.00000000E+00  0.00000000E+00  0.00000000E+00
  0.00000000E+00  0.00000000E+00  0.00000000E+00
  0.00000000E+00  0.00000000E+00  0.00000000E+00
  0.00000000E+00  0.00000000E+00  0.00000000E+00
  0.00000000E+00  0.00000000E+00  0.00000000E+00
  0.00000000E+00  0.00000000E+00  0.00000000E+00
  0.00000000E+00  0.00000000E+00  0.00000000E+00
  0.00000000E+00  0.00000000E+00  0.00000000E+00
  0.00000000E+00  0.00000000E+00  0.00000000E+00
  0.00000000E+00  0.00000000E+00  0.00000000E+00
  0.00000000E+00  0.00000000E+00  0.00000000E+00
  0.00000000E+00  0.00000000E+00  0.00000000E+00
  0.00000000E+00  0.00000000E+00  0.00000000E+00
  0.00000000E+00  0.00000000E+00  0.00000000E+00
  0.00000000E+00  0.00000000E+00  0.00000000E+00
  0.00000000E+00  0.00000000E+00  0.00000000E+00
  0.00000000E+00  0.00000000E+00  0.00000000E+00
  0.00000000E+00  0.00000000E+00  0.00000000E+00
  0.00000000E+00  0.00000000E+00  0.00000000E+00
  0.00000000E+00  0.00000000E+00  0.00000000E+00
  0.00000000E+00  0.00000000E+00  0.00000000E+00
  0.00000000E+00  0.00000000E+00  0.00000000E+00
  0.00000000E+00  0.00000000E+00  0.00000000E+00
  0.00000000E+00  0.00000000E+00  0.00000000E+00
  0.00000000E+00  0.00000000E+00  0.00000000E+00
  0.00000000E+00  0.00000000E+00  0.00000000E+00
  0.00000000E+00  0.00000000E+00  0.00000000E+00
  0.00000000E+00  0.00000000E+00  0.00000000E+00
  0.00000000E+00  0.00000000E+00  0.00000000E+00
  0.00000000E+00  0.00000000E+00  0.00000000E+00
  0.00000000E+00  0.00000000E+00  0.00000000E+00
  0.00000000E+00  0.00000000E+00  0.00000000E+00
  0.00000000E+00  0.00000000E+00  0.00000000E+00
  0.00000000E+00  0.00000000E+00  0.00000000E+00
  0.00000000E+00  0.00000000E+00  0.00000000E+00
  0.00000000E+00  0.00000000E+00  0.00000000E+00
  0.00000000E+00  0.00000000E+00  0.00000000E+00
  0.00000000E+00  0.00000000E+00  0.00000000E+00
  0.00000000E+00  0.00000000E+00  0.00000000E+00
  0.00000000E+00  0.00000000E+00  0.00000000E+00
  0.00000000E+00  0.00000000E+00  0.00000000E+00
  0.00000000E+00  0.00000000E+00  0.00000000E+00
  0.00000000E+00  0.00000000E+00  0.00000000E+00
  0.00000000E+00  0.00000000E+00  0.00000000E+00
  0.00000000E+00  0.00000000E+00  0.00000000E+00
  0.00000000E+00  0.00000000E+00  0.00000000E+00
  0.00000000E+00  0.00000000E+00  0.00000000E+00
  0.00000000E+00  0.00000000E+00  0.00000000E+00
  0.00000000E+00  0.00000000E+00  0.00000000E+00
  0.00000000E+00  0.00000000E+00  0.00000000E+00
  0.00000000E+00  0.00000000E+00  0.00000000E+00
  0.00000000E+00  0.00000000E+00  0.00000000E+00
  0.00000000E+00  0.00000000E+00  0.00000000E+00
  0.00000000E+00  0.00000000E+00  0.00000000E+00
  0.00000000E+00  0.00000000E+00  0.00000000E+00
  0.00000000E+00  0.00000000E+00  0.00000000E+00
  0.00000000E+00  0.00000000E+00  0.00000000E+00
  0.00000000E+00  0.00000000E+00  0.00000000E+00
  0.00000000E+00  0.00000000E+00  0.00000000E+00
  0.00000000E+00  0.00000000E+00  0.00000000E+00
  0.00000000E+00  0.00000000E+00  0.00000000E+00
  0.00000000E+00  0.00000000E+00  0.00000000E+00
  0.00000000E+00  0.00000000E+00  0.00000000E+00
  0.00000000E+00  0.00000000E+00  0.00000000E+00
  0.00000000E+00  0.00000000E+00  0.00000000E+00
  0.00000000E+00  0.00000000E+00  0.00000000E+00
  0.00000000E+00  0.00000000E+00  0.00000000E+00
  0.00000000E+00  0.00000000E+00  0.00000000E+00
  0.00000000E+00  0.00000000E+00  0.00000000E+00
  0.00000000E+00  0.00000000E+00  0.00000000E+00
  0.00000000E+00  0.00000000E+00  0.00000000E+00
  0.00000000E+00  0.00000000E+00  0.00000000E+00
  0.00000000E+00  0.00000000E+00  0.00000000E+00
  0.00000000E+00  0.00000000E+00  0.00000000E+00
  0.00000000E+00  0.00000000E+00  0.00000000E+00
  0.00000000E+00  0.00000000E+00  0.00000000E+00
  0.00000000E+00  0.00000000E+00  0.00000000E+00
  0.00000000E+00  0.00000000E+00  0.00000000E+00
  0.00000000E+00  0.00000000E+00  0.00000000E+00
  0.00000000E+00  0.00000000E+00  0.00000000E+00
  0.00000000E+00  0.00000000E+00  0.00000000E+00
  0.00000000E+00  0.00000000E+00  0.00000000E+00
  0.00000000E+00  0.00000000E+00  0.00000000E+00
  0.00000000E+00  0.00000000E+00  0.00000000E+00
  0.00000000E+00  0.00000000E+00  0.00000000E+00
  0.00000000E+00  0.00000000E+00  0.00000000E+00
  0.00000000E+00  0.00000000E+00  0.00000000E+00
  0.00000000E+00  0.00000000E+00  0.00000000E+00
