TiO2_rutile\(0\0\1)                     
   1.00000000000000     
    18.3744784637842713   -0.0480919927073370    0.0000000000000000
    -0.0240359356974315    9.1833120666383525    0.0000000000000000
     0.0000000000000000    0.0000000000000000   21.5007611438183019
   Ti   O 
    64   128
Selective dynamics
Direct
  0.1198600009999993  0.4023999870000026  0.0583500010000009   F   F   F
  0.1198600009999993  0.4023999870000026  0.1968294085706149   T   T   T
  0.1198600009999993  0.4023999870000026  0.3343394245428982   T   T   T
  0.1198600009999993  0.4023999870000026  0.4700144904004667   T   T   T
  0.2448599929999986  0.1524000020000003  0.0000000000000000   F   F   F
  0.2448599929999986  0.1524000020000003  0.1410280698534101   T   T   T
  0.2448599929999986  0.1524000020000003  0.2842042183777466   T   T   T
  0.2448599929999986  0.1524000020000003  0.4326810355299973   T   T   T
  0.3698599929999986  0.4023999870000026  0.0583500010000009   F   F   F
  0.3698599929999986  0.4023999870000026  0.1968294085706149   T   T   T
  0.3698599929999986  0.4023999870000026  0.3343394245428982   T   T   T
  0.3698599929999986  0.4023999870000026  0.4700144904004667   T   T   T
  0.4948599929999986  0.1524000020000003  0.0000000000000000   F   F   F
  0.4948599929999986  0.1524000020000003  0.1410280698534101   T   T   T
  0.4948599929999986  0.1524000020000003  0.2842042183777466   T   T   T
  0.4948599929999986  0.1524000020000003  0.4326810355299973   T   T   T
  0.1198600009999993  0.9024000169999979  0.0583500010000009   F   F   F
  0.1198600009999993  0.9024000169999979  0.1968294085706149   T   T   T
  0.1198600009999993  0.9024000169999979  0.3343394245428982   T   T   T
  0.1198600009999993  0.9024000169999979  0.4700144904004667   T   T   T
  0.2448599929999986  0.6524000169999979  0.0000000000000000   F   F   F
  0.2448599929999986  0.6524000169999979  0.1410280698534100   T   T   T
  0.2448599929999986  0.6524000169999979  0.2842042183777466   T   T   T
  0.2448599929999986  0.6524000169999979  0.4326810355299973   T   T   T
  0.3698599929999986  0.9024000169999979  0.0583500010000009   F   F   F
  0.3698599929999986  0.9024000169999979  0.1968294085706149   T   T   T
  0.3698599929999986  0.9024000169999979  0.3343394245428982   T   T   T
  0.3698599929999986  0.9024000169999979  0.4700144904004667   T   T   T
  0.4948599929999986  0.6524000169999979  0.0000000000000000   F   F   F
  0.4948599929999986  0.6524000169999979  0.1410280698534101   T   T   T
  0.4948599929999986  0.6524000169999979  0.2842042183777466   T   T   T
  0.4948599929999986  0.6524000169999979  0.4326810355299973   T   T   T
  0.6198599929999986  0.4023999870000026  0.0583500010000009   F   F   F
  0.6198599929999986  0.4023999870000026  0.1968294085706149   T   T   T
  0.6198599929999986  0.4023999870000026  0.3343394245428982   T   T   T
  0.6198599929999986  0.4023999870000026  0.4700144904004667   T   T   T
  0.7448599929999986  0.1524000020000003  0.0000000000000000   F   F   F
  0.7448599929999986  0.1524000020000003  0.1410280698534101   T   T   T
  0.7448599929999986  0.1524000020000003  0.2842042183777466   T   T   T
  0.7448599929999986  0.1524000020000003  0.4326810355299973   T   T   T
  0.8698599929999986  0.4023999870000026  0.0583500010000009   F   F   F
  0.8698599929999986  0.4023999870000026  0.1968294085706149   T   T   T
  0.8698599929999986  0.4023999870000026  0.3343394245428982   T   T   T
  0.8698599929999986  0.4023999870000026  0.4700144904004668   T   T   T
  0.9948599929999986  0.1524000020000003  0.0000000000000000   F   F   F
  0.9948599929999986  0.1524000020000003  0.1410280698534101   T   T   T
  0.9948599929999986  0.1524000020000003  0.2842042183777466   T   T   T
  0.9948599929999986  0.1524000020000003  0.4326810355299973   T   T   T
  0.6198599929999986  0.9024000169999979  0.0583500010000009   F   F   F
  0.6198599929999986  0.9024000169999979  0.1968294085706149   T   T   T
  0.6198599929999986  0.9024000169999979  0.3343394245428982   T   T   T
  0.6198599929999986  0.9024000169999979  0.4700144904004667   T   T   T
  0.7448599929999986  0.6524000169999979  0.0000000000000000   F   F   F
  0.7448599929999986  0.6524000169999979  0.1410280698534101   T   T   T
  0.7448599929999986  0.6524000169999979  0.2842042183777466   T   T   T
  0.7448599929999986  0.6524000169999979  0.4326810355299973   T   T   T
  0.8698599929999986  0.9024000169999979  0.0583500010000009   F   F   F
  0.8698599929999986  0.9024000169999979  0.1968294085706149   T   T   T
  0.8698599929999986  0.9024000169999979  0.3343394245428982   T   T   T
  0.8698599929999986  0.9024000169999979  0.4700144904004667   T   T   T
  0.9948599929999986  0.6524000169999979  0.0000000000000000   F   F   F
  0.9948599929999986  0.6524000169999979  0.1410280698534101   T   T   T
  0.9948599929999986  0.6524000169999979  0.2842042183777466   T   T   T
  0.9948599929999986  0.6524000169999979  0.4326810355299973   T   T   T
  0.1960600020000030  0.0548000000000002  0.0583500010000009   F   F   F
  0.1957941065870804  0.0540477001206034  0.2044984340959483   T   T   T
  0.1952064777414477  0.0527736648915803  0.3464947058980476   T   T   T
  0.1914048034679570  0.0452629381179224  0.4893063741670204   T   T   T
  0.0436600000000027  0.2500000000000000  0.0583500010000009   F   F   F
  0.0439258954129252  0.2507522998793969  0.2044984340959483   T   T   T
  0.0445135242585580  0.2520263351084200  0.3464947058980476   T   T   T
  0.0483151985320485  0.2595370618820780  0.4893063741670204   T   T   T
  0.1686600000000027  0.3048000040000005  0.0000000000000000   F   F   F
  0.1697496258201834  0.3024675041713777  0.1352873392030182   T   T   T
  0.1693411487232392  0.3031447383512581  0.2736866459544218   T   T   T
  0.1704058017877034  0.3009798693785470  0.4138847106054552   T   T   T
  0.0710600020000030  0.0000000000000000  0.0000000000000000   F   F   F
  0.0699703761798224  0.0023324998286231  0.1352873392030182   T   T   T
  0.0703788532767666  0.0016552656487424  0.2736866459544218   T   T   T
  0.0693142002123023  0.0038201346214535  0.4138847106054552   T   T   T
  0.4460600020000030  0.0548000000000002  0.0583500010000009   F   F   F
  0.4457941065870806  0.0540477001206034  0.2044984340959483   T   T   T
  0.4452064777414475  0.0527736648915803  0.3464947058980476   T   T   T
  0.4414048034679573  0.0452629381179224  0.4893063741670204   T   T   T
  0.2936600150000004  0.2500000000000000  0.0583500010000009   F   F   F
  0.2939259104129227  0.2507522998793969  0.2044984340959484   T   T   T
  0.2945135392585558  0.2520263351084200  0.3464947058980476   T   T   T
  0.2983152135320460  0.2595370618820780  0.4893063741670204   T   T   T
  0.4186600150000004  0.3048000040000005  0.0000000000000000   F   F   F
  0.4197496408201809  0.3024675041713777  0.1352873392030182   T   T   T
  0.4193411637232371  0.3031447383512581  0.2736866459544218   T   T   T
  0.4204058167877011  0.3009798693785469  0.4138847106054552   T   T   T
  0.3210600020000030  0.0000000000000000  0.0000000000000000   F   F   F
  0.3199703761798224  0.0023324998286231  0.1352873392030182   T   T   T
  0.3203788532767662  0.0016552656487424  0.2736866459544218   T   T   T
  0.3193142002123023  0.0038201346214535  0.4138847106054552   T   T   T
  0.1960600020000030  0.5547999739999980  0.0583500010000009   F   F   F
  0.1957941065870804  0.5540476741206017  0.2044984340959483   T   T   T
  0.1952064777414477  0.5527736388915779  0.3464947058980476   T   T   T
  0.1914048034679570  0.5452629121179203  0.4893063741670204   T   T   T
  0.0436600000000027  0.7500000000000000  0.0583500010000009   F   F   F
  0.0439258954129252  0.7507522998793964  0.2044984340959483   T   T   T
  0.0445135242585580  0.7520263351084201  0.3464947058980476   T   T   T
  0.0483151985320485  0.7595370618820777  0.4893063741670204   T   T   T
  0.1686600000000027  0.8047999739999980  0.0000000000000000   F   F   F
  0.1697496258201834  0.8024674741713751  0.1352873392030182   T   T   T
  0.1693411487232392  0.8031447083512553  0.2736866459544218   T   T   T
  0.1704058017877034  0.8009798393785447  0.4138847106054552   T   T   T
  0.0710600020000030  0.5000000000000000  0.0000000000000000   F   F   F
  0.0699703761798224  0.5023324998286230  0.1352873392030182   T   T   T
  0.0703788532767666  0.5016552656487426  0.2736866459544218   T   T   T
  0.0693142002123023  0.5038201346214531  0.4138847106054552   T   T   T
  0.4460600020000030  0.5547999739999980  0.0583500010000009   F   F   F
  0.4457941065870806  0.5540476741206017  0.2044984340959483   T   T   T
  0.4452064777414475  0.5527736388915779  0.3464947058980476   T   T   T
  0.4414048034679573  0.5452629121179203  0.4893063741670204   T   T   T
  0.2936600150000004  0.7500000000000000  0.0583500010000009   F   F   F
  0.2939259104129227  0.7507522998793964  0.2044984340959483   T   T   T
  0.2945135392585558  0.7520263351084201  0.3464947058980476   T   T   T
  0.2983152135320460  0.7595370618820777  0.4893063741670204   T   T   T
  0.4186600150000004  0.8047999739999980  0.0000000000000000   F   F   F
  0.4197496408201809  0.8024674741713750  0.1352873392030182   T   T   T
  0.4193411637232371  0.8031447083512553  0.2736866459544218   T   T   T
  0.4204058167877011  0.8009798393785447  0.4138847106054552   T   T   T
  0.3210600020000030  0.5000000000000000  0.0000000000000000   F   F   F
  0.3199703761798224  0.5023324998286230  0.1352873392030182   T   T   T
  0.3203788532767662  0.5016552656487426  0.2736866459544218   T   T   T
  0.3193142002123023  0.5038201346214531  0.4138847106054552   T   T   T
  0.6960600020000030  0.0548000000000002  0.0583500010000009   F   F   F
  0.6957941065870804  0.0540477001206034  0.2044984340959483   T   T   T
  0.6952064777414476  0.0527736648915803  0.3464947058980476   T   T   T
  0.6914048034679573  0.0452629381179224  0.4893063741670204   T   T   T
  0.5436599849999979  0.2500000000000000  0.0583500010000009   F   F   F
  0.5439258804129204  0.2507522998793970  0.2044984340959483   T   T   T
  0.5445135092585532  0.2520263351084200  0.3464947058980476   T   T   T
  0.5483151835320436  0.2595370618820780  0.4893063741670204   T   T   T
  0.6686599849999979  0.3048000040000005  0.0000000000000000   F   F   F
  0.6697496108201785  0.3024675041713777  0.1352873392030182   T   T   T
  0.6693411337232338  0.3031447383512581  0.2736866459544218   T   T   T
  0.6704057867876984  0.3009798693785470  0.4138847106054552   T   T   T
  0.5710600020000030  0.0000000000000000  0.0000000000000000   F   F   F
  0.5699703761798224  0.0023324998286231  0.1352873392030182   T   T   T
  0.5703788532767671  0.0016552656487424  0.2736866459544218   T   T   T
  0.5693142002123025  0.0038201346214535  0.4138847106054552   T   T   T
  0.9460600020000030  0.0548000000000002  0.0583500010000009   F   F   F
  0.9457941065870804  0.0540477001206034  0.2044984340959483   T   T   T
  0.9452064777414476  0.0527736648915803  0.3464947058980476   T   T   T
  0.9414048034679573  0.0452629381179224  0.4893063741670204   T   T   T
  0.7936599849999979  0.2500000000000000  0.0583500010000009   F   F   F
  0.7939258804129204  0.2507522998793970  0.2044984340959483   T   T   T
  0.7945135092585532  0.2520263351084200  0.3464947058980476   T   T   T
  0.7983151835320436  0.2595370618820780  0.4893063741670204   T   T   T
  0.9186599849999979  0.3048000040000005  0.0000000000000000   F   F   F
  0.9197496108201785  0.3024675041713777  0.1352873392030182   T   T   T
  0.9193411337232338  0.3031447383512581  0.2736866459544218   T   T   T
  0.9204057867876984  0.3009798693785469  0.4138847106054552   T   T   T
  0.8210600020000030  0.0000000000000000  0.0000000000000000   F   F   F
  0.8199703761798224  0.0023324998286231  0.1352873392030182   T   T   T
  0.8203788532767671  0.0016552656487424  0.2736866459544218   T   T   T
  0.8193142002123025  0.0038201346214535  0.4138847106054552   T   T   T
  0.6960600020000030  0.5547999739999980  0.0583500010000009   F   F   F
  0.6957941065870804  0.5540476741206019  0.2044984340959483   T   T   T
  0.6952064777414476  0.5527736388915779  0.3464947058980476   T   T   T
  0.6914048034679573  0.5452629121179203  0.4893063741670204   T   T   T
  0.5436599849999979  0.7500000000000000  0.0583500010000009   F   F   F
  0.5439258804129204  0.7507522998793964  0.2044984340959483   T   T   T
  0.5445135092585532  0.7520263351084201  0.3464947058980476   T   T   T
  0.5483151835320436  0.7595370618820777  0.4893063741670204   T   T   T
  0.6686599849999979  0.8047999739999980  0.0000000000000000   F   F   F
  0.6697496108201785  0.8024674741713751  0.1352873392030182   T   T   T
  0.6693411337232338  0.8031447083512553  0.2736866459544218   T   T   T
  0.6704057867876984  0.8009798393785447  0.4138847106054552   T   T   T
  0.5710600020000030  0.5000000000000000  0.0000000000000000   F   F   F
  0.5699703761798224  0.5023324998286230  0.1352873392030182   T   T   T
  0.5703788532767671  0.5016552656487426  0.2736866459544218   T   T   T
  0.5693142002123025  0.5038201346214531  0.4138847106054552   T   T   T
  0.9460600020000030  0.5547999739999980  0.0583500010000009   F   F   F
  0.9457941065870804  0.5540476741206019  0.2044984340959483   T   T   T
  0.9452064777414476  0.5527736388915779  0.3464947058980476   T   T   T
  0.9414048034679573  0.5452629121179203  0.4893063741670204   T   T   T
  0.7936599849999979  0.7500000000000000  0.0583500010000009   F   F   F
  0.7939258804129204  0.7507522998793964  0.2044984340959483   T   T   T
  0.7945135092585532  0.7520263351084201  0.3464947058980476   T   T   T
  0.7983151835320436  0.7595370618820777  0.4893063741670204   T   T   T
  0.9186599849999979  0.8047999739999980  0.0000000000000000   F   F   F
  0.9197496108201785  0.8024674741713751  0.1352873392030182   T   T   T
  0.9193411337232338  0.8031447083512553  0.2736866459544218   T   T   T
  0.9204057867876984  0.8009798393785447  0.4138847106054552   T   T   T
  0.8210600020000030  0.5000000000000000  0.0000000000000000   F   F   F
  0.8199703761798224  0.5023324998286230  0.1352873392030182   T   T   T
  0.8203788532767671  0.5016552656487426  0.2736866459544218   T   T   T
  0.8193142002123025  0.5038201346214531  0.4138847106054552   T   T   T
 
  0.00000000E+00  0.00000000E+00  0.00000000E+00
  0.00000000E+00  0.00000000E+00  0.00000000E+00
  0.00000000E+00  0.00000000E+00  0.00000000E+00
  0.00000000E+00  0.00000000E+00  0.00000000E+00
  0.00000000E+00  0.00000000E+00  0.00000000E+00
  0.00000000E+00  0.00000000E+00  0.00000000E+00
  0.00000000E+00  0.00000000E+00  0.00000000E+00
  0.00000000E+00  0.00000000E+00  0.00000000E+00
  0.00000000E+00  0.00000000E+00  0.00000000E+00
  0.00000000E+00  0.00000000E+00  0.00000000E+00
  0.00000000E+00  0.00000000E+00  0.00000000E+00
  0.00000000E+00  0.00000000E+00  0.00000000E+00
  0.00000000E+00  0.00000000E+00  0.00000000E+00
  0.00000000E+00  0.00000000E+00  0.00000000E+00
  0.00000000E+00  0.00000000E+00  0.00000000E+00
  0.00000000E+00  0.00000000E+00  0.00000000E+00
  0.00000000E+00  0.00000000E+00  0.00000000E+00
  0.00000000E+00  0.00000000E+00  0.00000000E+00
  0.00000000E+00  0.00000000E+00  0.00000000E+00
  0.00000000E+00  0.00000000E+00  0.00000000E+00
  0.00000000E+00  0.00000000E+00  0.00000000E+00
  0.00000000E+00  0.00000000E+00  0.00000000E+00
  0.00000000E+00  0.00000000E+00  0.00000000E+00
  0.00000000E+00  0.00000000E+00  0.00000000E+00
  0.00000000E+00  0.00000000E+00  0.00000000E+00
  0.00000000E+00  0.00000000E+00  0.00000000E+00
  0.00000000E+00  0.00000000E+00  0.00000000E+00
  0.00000000E+00  0.00000000E+00  0.00000000E+00
  0.00000000E+00  0.00000000E+00  0.00000000E+00
  0.00000000E+00  0.00000000E+00  0.00000000E+00
  0.00000000E+00  0.00000000E+00  0.00000000E+00
  0.00000000E+00  0.00000000E+00  0.00000000E+00
  0.00000000E+00  0.00000000E+00  0.00000000E+00
  0.00000000E+00  0.00000000E+00  0.00000000E+00
  0.00000000E+00  0.00000000E+00  0.00000000E+00
  0.00000000E+00  0.00000000E+00  0.00000000E+00
  0.00000000E+00  0.00000000E+00  0.00000000E+00
  0.00000000E+00  0.00000000E+00  0.00000000E+00
  0.00000000E+00  0.00000000E+00  0.00000000E+00
  0.00000000E+00  0.00000000E+00  0.00000000E+00
  0.00000000E+00  0.00000000E+00  0.00000000E+00
  0.00000000E+00  0.00000000E+00  0.00000000E+00
  0.00000000E+00  0.00000000E+00  0.00000000E+00
  0.00000000E+00  0.00000000E+00  0.00000000E+00
  0.00000000E+00  0.00000000E+00  0.00000000E+00
  0.00000000E+00  0.00000000E+00  0.00000000E+00
  0.00000000E+00  0.00000000E+00  0.00000000E+00
  0.00000000E+00  0.00000000E+00  0.00000000E+00
  0.00000000E+00  0.00000000E+00  0.00000000E+00
  0.00000000E+00  0.00000000E+00  0.00000000E+00
  0.00000000E+00  0.00000000E+00  0.00000000E+00
  0.00000000E+00  0.00000000E+00  0.00000000E+00
  0.00000000E+00  0.00000000E+00  0.00000000E+00
  0.00000000E+00  0.00000000E+00  0.00000000E+00
  0.00000000E+00  0.00000000E+00  0.00000000E+00
  0.00000000E+00  0.00000000E+00  0.00000000E+00
  0.00000000E+00  0.00000000E+00  0.00000000E+00
  0.00000000E+00  0.00000000E+00  0.00000000E+00
  0.00000000E+00  0.00000000E+00  0.00000000E+00
  0.00000000E+00  0.00000000E+00  0.00000000E+00
  0.00000000E+00  0.00000000E+00  0.00000000E+00
  0.00000000E+00  0.00000000E+00  0.00000000E+00
  0.00000000E+00  0.00000000E+00  0.00000000E+00
  0.00000000E+00  0.00000000E+00  0.00000000E+00
  0.00000000E+00  0.00000000E+00  0.00000000E+00
  0.00000000E+00  0.00000000E+00  0.00000000E+00
  0.00000000E+00  0.00000000E+00  0.00000000E+00
  0.00000000E+00  0.00000000E+00  0.00000000E+00
  0.00000000E+00  0.00000000E+00  0.00000000E+00
  0.00000000E+00  0.00000000E+00  0.00000000E+00
  0.00000000E+00  0.00000000E+00  0.00000000E+00
  0.00000000E+00  0.00000000E+00  0.00000000E+00
  0.00000000E+00  0.00000000E+00  0.00000000E+00
  0.00000000E+00  0.00000000E+00  0.00000000E+00
  0.00000000E+00  0.00000000E+00  0.00000000E+00
  0.00000000E+00  0.00000000E+00  0.00000000E+00
  0.00000000E+00  0.00000000E+00  0.00000000E+00
  0.00000000E+00  0.00000000E+00  0.00000000E+00
  0.00000000E+00  0.00000000E+00  0.00000000E+00
  0.00000000E+00  0.00000000E+00  0.00000000E+00
  0.00000000E+00  0.00000000E+00  0.00000000E+00
  0.00000000E+00  0.00000000E+00  0.00000000E+00
  0.00000000E+00  0.00000000E+00  0.00000000E+00
  0.00000000E+00  0.00000000E+00  0.00000000E+00
  0.00000000E+00  0.00000000E+00  0.00000000E+00
  0.00000000E+00  0.00000000E+00  0.00000000E+00
  0.00000000E+00  0.00000000E+00  0.00000000E+00
  0.00000000E+00  0.00000000E+00  0.00000000E+00
  0.00000000E+00  0.00000000E+00  0.00000000E+00
  0.00000000E+00  0.00000000E+00  0.00000000E+00
  0.00000000E+00  0.00000000E+00  0.00000000E+00
  0.00000000E+00  0.00000000E+00  0.00000000E+00
  0.00000000E+00  0.00000000E+00  0.00000000E+00
  0.00000000E+00  0.00000000E+00  0.00000000E+00
  0.00000000E+00  0.00000000E+00  0.00000000E+00
  0.00000000E+00  0.00000000E+00  0.00000000E+00
  0.00000000E+00  0.00000000E+00  0.00000000E+00
  0.00000000E+00  0.00000000E+00  0.00000000E+00
  0.00000000E+00  0.00000000E+00  0.00000000E+00
  0.00000000E+00  0.00000000E+00  0.00000000E+00
  0.00000000E+00  0.00000000E+00  0.00000000E+00
  0.00000000E+00  0.00000000E+00  0.00000000E+00
  0.00000000E+00  0.00000000E+00  0.00000000E+00
  0.00000000E+00  0.00000000E+00  0.00000000E+00
  0.00000000E+00  0.00000000E+00  0.00000000E+00
  0.00000000E+00  0.00000000E+00  0.00000000E+00
  0.00000000E+00  0.00000000E+00  0.00000000E+00
  0.00000000E+00  0.00000000E+00  0.00000000E+00
  0.00000000E+00  0.00000000E+00  0.00000000E+00
  0.00000000E+00  0.00000000E+00  0.00000000E+00
  0.00000000E+00  0.00000000E+00  0.00000000E+00
  0.00000000E+00  0.00000000E+00  0.00000000E+00
  0.00000000E+00  0.00000000E+00  0.00000000E+00
  0.00000000E+00  0.00000000E+00  0.00000000E+00
  0.00000000E+00  0.00000000E+00  0.00000000E+00
  0.00000000E+00  0.00000000E+00  0.00000000E+00
  0.00000000E+00  0.00000000E+00  0.00000000E+00
  0.00000000E+00  0.00000000E+00  0.00000000E+00
  0.00000000E+00  0.00000000E+00  0.00000000E+00
  0.00000000E+00  0.00000000E+00  0.00000000E+00
  0.00000000E+00  0.00000000E+00  0.00000000E+00
  0.00000000E+00  0.00000000E+00  0.00000000E+00
  0.00000000E+00  0.00000000E+00  0.00000000E+00
  0.00000000E+00  0.00000000E+00  0.00000000E+00
  0.00000000E+00  0.00000000E+00  0.00000000E+00
  0.00000000E+00  0.00000000E+00  0.00000000E+00
  0.00000000E+00  0.00000000E+00  0.00000000E+00
  0.00000000E+00  0.00000000E+00  0.00000000E+00
  0.00000000E+00  0.00000000E+00  0.00000000E+00
  0.00000000E+00  0.00000000E+00  0.00000000E+00
  0.00000000E+00  0.00000000E+00  0.00000000E+00
  0.00000000E+00  0.00000000E+00  0.00000000E+00
  0.00000000E+00  0.00000000E+00  0.00000000E+00
  0.00000000E+00  0.00000000E+00  0.00000000E+00
  0.00000000E+00  0.00000000E+00  0.00000000E+00
  0.00000000E+00  0.00000000E+00  0.00000000E+00
  0.00000000E+00  0.00000000E+00  0.00000000E+00
  0.00000000E+00  0.00000000E+00  0.00000000E+00
  0.00000000E+00  0.00000000E+00  0.00000000E+00
  0.00000000E+00  0.00000000E+00  0.00000000E+00
  0.00000000E+00  0.00000000E+00  0.00000000E+00
  0.00000000E+00  0.00000000E+00  0.00000000E+00
  0.00000000E+00  0.00000000E+00  0.00000000E+00
  0.00000000E+00  0.00000000E+00  0.00000000E+00
  0.00000000E+00  0.00000000E+00  0.00000000E+00
  0.00000000E+00  0.00000000E+00  0.00000000E+00
  0.00000000E+00  0.00000000E+00  0.00000000E+00
  0.00000000E+00  0.00000000E+00  0.00000000E+00
  0.00000000E+00  0.00000000E+00  0.00000000E+00
  0.00000000E+00  0.00000000E+00  0.00000000E+00
  0.00000000E+00  0.00000000E+00  0.00000000E+00
  0.00000000E+00  0.00000000E+00  0.00000000E+00
  0.00000000E+00  0.00000000E+00  0.00000000E+00
  0.00000000E+00  0.00000000E+00  0.00000000E+00
  0.00000000E+00  0.00000000E+00  0.00000000E+00
  0.00000000E+00  0.00000000E+00  0.00000000E+00
  0.00000000E+00  0.00000000E+00  0.00000000E+00
  0.00000000E+00  0.00000000E+00  0.00000000E+00
  0.00000000E+00  0.00000000E+00  0.00000000E+00
  0.00000000E+00  0.00000000E+00  0.00000000E+00
  0.00000000E+00  0.00000000E+00  0.00000000E+00
  0.00000000E+00  0.00000000E+00  0.00000000E+00
  0.00000000E+00  0.00000000E+00  0.00000000E+00
  0.00000000E+00  0.00000000E+00  0.00000000E+00
  0.00000000E+00  0.00000000E+00  0.00000000E+00
  0.00000000E+00  0.00000000E+00  0.00000000E+00
  0.00000000E+00  0.00000000E+00  0.00000000E+00
  0.00000000E+00  0.00000000E+00  0.00000000E+00
  0.00000000E+00  0.00000000E+00  0.00000000E+00
  0.00000000E+00  0.00000000E+00  0.00000000E+00
  0.00000000E+00  0.00000000E+00  0.00000000E+00
  0.00000000E+00  0.00000000E+00  0.00000000E+00
  0.00000000E+00  0.00000000E+00  0.00000000E+00
  0.00000000E+00  0.00000000E+00  0.00000000E+00
  0.00000000E+00  0.00000000E+00  0.00000000E+00
  0.00000000E+00  0.00000000E+00  0.00000000E+00
  0.00000000E+00  0.00000000E+00  0.00000000E+00
  0.00000000E+00  0.00000000E+00  0.00000000E+00
  0.00000000E+00  0.00000000E+00  0.00000000E+00
  0.00000000E+00  0.00000000E+00  0.00000000E+00
  0.00000000E+00  0.00000000E+00  0.00000000E+00
  0.00000000E+00  0.00000000E+00  0.00000000E+00
  0.00000000E+00  0.00000000E+00  0.00000000E+00
  0.00000000E+00  0.00000000E+00  0.00000000E+00
  0.00000000E+00  0.00000000E+00  0.00000000E+00
  0.00000000E+00  0.00000000E+00  0.00000000E+00
  0.00000000E+00  0.00000000E+00  0.00000000E+00
  0.00000000E+00  0.00000000E+00  0.00000000E+00
  0.00000000E+00  0.00000000E+00  0.00000000E+00
  0.00000000E+00  0.00000000E+00  0.00000000E+00
  0.00000000E+00  0.00000000E+00  0.00000000E+00
  0.00000000E+00  0.00000000E+00  0.00000000E+00
