TiO2_rutile\(0\0\1)
1.0
       18.3759994507         0.0000000000         0.0000000000
        0.0000000000         9.1879997253         0.0000000000
        0.0000000000         0.0000000000        25.3565006256
   Ti    O
   64  128
Selective Dynamics
Direct
     0.119860001         0.402399987         0.058350001 F F F
     0.119860001         0.402399987         0.175040007 T T T
     0.119860001         0.402399987         0.291740000 T T T
     0.119860001         0.402399987         0.408439994 T T T
     0.244859993         0.152400002         0.000000000 F F F
     0.244859993         0.152400002         0.116700001 T T T
     0.244859993         0.152400002         0.233390003 T T T
     0.244859993         0.152400002         0.350089997 T T T
     0.369859993         0.402399987         0.058350001 F F F
     0.369859993         0.402399987         0.175040007 T T T
     0.369859993         0.402399987         0.291740000 T T T
     0.369859993         0.402399987         0.408439994 T T T
     0.494859993         0.152400002         0.000000000 F F F
     0.494859993         0.152400002         0.116700001 T T T
     0.494859993         0.152400002         0.233390003 T T T
     0.494859993         0.152400002         0.350089997 T T T
     0.119860001         0.902400017         0.058350001 F F F
     0.119860001         0.902400017         0.175040007 T T T
     0.119860001         0.902400017         0.291740000 T T T
     0.119860001         0.902400017         0.408439994 T T T
     0.244859993         0.652400017         0.000000000 F F F
     0.244859993         0.652400017         0.116700001 T T T
     0.244859993         0.652400017         0.233390003 T T T
     0.244859993         0.652400017         0.350089997 T T T
     0.369859993         0.902400017         0.058350001 F F F
     0.369859993         0.902400017         0.175040007 T T T
     0.369859993         0.902400017         0.291740000 T T T
     0.369859993         0.902400017         0.408439994 T T T
     0.494859993         0.652400017         0.000000000 F F F
     0.494859993         0.652400017         0.116700001 T T T
     0.494859993         0.652400017         0.233390003 T T T
     0.494859993         0.652400017         0.350089997 T T T
     0.619859993         0.402399987         0.058350001 F F F
     0.619859993         0.402399987         0.175040007 T T T
     0.619859993         0.402399987         0.291740000 T T T
     0.619859993         0.402399987         0.408439994 T T T 
     0.744859993         0.152400002         0.000000000 F F F
     0.744859993         0.152400002         0.116700001 T T T
     0.744859993         0.152400002         0.233390003 T T T
     0.744859993         0.152400002         0.350089997 T T T
     0.869859993         0.402399987         0.058350001 F F F
     0.869859993         0.402399987         0.175040007 T T T
     0.869859993         0.402399987         0.291740000 T T T
     0.869859993         0.402399987         0.408439994 T T T
     0.994859993         0.152400002         0.000000000 F F F
     0.994859993         0.152400002         0.116700001 T T T
     0.994859993         0.152400002         0.233390003 T T T
     0.994859993         0.152400002         0.350089997 T T T
     0.619859993         0.902400017         0.058350001 F F F
     0.619859993         0.902400017         0.175040007 T T T
     0.619859993         0.902400017         0.291740000 T T T
     0.619859993         0.902400017         0.408439994 T T T
     0.744859993         0.652400017         0.000000000 F F F
     0.744859993         0.652400017         0.116700001 T T T
     0.744859993         0.652400017         0.233390003 T T T
     0.744859993         0.652400017         0.350089997 T T T
     0.869859993         0.902400017         0.058350001 F F F
     0.869859993         0.902400017         0.175040007 T T T
     0.869859993         0.902400017         0.291740000 T T T
     0.869859993         0.902400017         0.408439994 T T T
     0.994859993         0.652400017         0.000000000 F F F
     0.994859993         0.652400017         0.116700001 T T T
     0.994859993         0.652400017         0.233390003 T T T
     0.994859993         0.652400017         0.350089997 T T T
     0.196060002         0.054800000         0.058350001 F F F
     0.196060002         0.054800000         0.175040007 T T T
     0.196060002         0.054800000         0.291740000 T T T
     0.196060002         0.054800000         0.408439994 T T T
     0.043660000         0.250000000         0.058350001 F F F
     0.043660000         0.250000000         0.175040007 T T T
     0.043660000         0.250000000         0.291740000 T T T
     0.043660000         0.250000000         0.408439994 T T T
     0.168660000         0.304800004         0.000000000 F F F
     0.168660000         0.304800004         0.116700001 T T T
     0.168660000         0.304800004         0.233390003 T T T
     0.168660000         0.304800004         0.350089997 T T T
     0.071060002         0.000000000         0.000000000 F F F
     0.071060002         0.000000000         0.116700001 T T T
     0.071060002         0.000000000         0.233390003 T T T
     0.071060002         0.000000000         0.350089997 T T T
     0.446060002         0.054800000         0.058350001 F F F
     0.446060002         0.054800000         0.175040007 T T T
     0.446060002         0.054800000         0.291740000 T T T
     0.446060002         0.054800000         0.408439994 T T T
     0.293660015         0.250000000         0.058350001 F F F
     0.293660015         0.250000000         0.175040007 T T T
     0.293660015         0.250000000         0.291740000 T T T
     0.293660015         0.250000000         0.408439994 T T T
     0.418660015         0.304800004         0.000000000 F F F
     0.418660015         0.304800004         0.116700001 T T T
     0.418660015         0.304800004         0.233390003 T T T
     0.418660015         0.304800004         0.350089997 T T T
     0.321060002         0.000000000         0.000000000 F F F
     0.321060002         0.000000000         0.116700001 T T T
     0.321060002         0.000000000         0.233390003 T T T
     0.321060002         0.000000000         0.350089997 T T T
     0.196060002         0.554799974         0.058350001 F F F
     0.196060002         0.554799974         0.175040007 T T T
     0.196060002         0.554799974         0.291740000 T T T
     0.196060002         0.554799974         0.408439994 T T T
     0.043660000         0.750000000         0.058350001 F F F
     0.043660000         0.750000000         0.175040007 T T T
     0.043660000         0.750000000         0.291740000 T T T
     0.043660000         0.750000000         0.408439994 T T T	 
     0.168660000         0.804799974         0.000000000 F F F
     0.168660000         0.804799974         0.116700001 T T T
     0.168660000         0.804799974         0.233390003 T T T
     0.168660000         0.804799974         0.350089997 T T T
     0.071060002         0.500000000         0.000000000 F F F
     0.071060002         0.500000000         0.116700001 T T T
     0.071060002         0.500000000         0.233390003 T T T
     0.071060002         0.500000000         0.350089997 T T T
     0.446060002         0.554799974         0.058350001 F F F
     0.446060002         0.554799974         0.175040007 T T T
     0.446060002         0.554799974         0.291740000 T T T
     0.446060002         0.554799974         0.408439994 T T T
     0.293660015         0.750000000         0.058350001 F F F
     0.293660015         0.750000000         0.175040007 T T T
     0.293660015         0.750000000         0.291740000 T T T
     0.293660015         0.750000000         0.408439994 T T T
     0.418660015         0.804799974         0.000000000 F F F
     0.418660015         0.804799974         0.116700001 T T T
     0.418660015         0.804799974         0.233390003 T T T
     0.418660015         0.804799974         0.350089997 T T T
     0.321060002         0.500000000         0.000000000 F F F
     0.321060002         0.500000000         0.116700001 T T T
     0.321060002         0.500000000         0.233390003 T T T
     0.321060002         0.500000000         0.350089997 T T T
     0.696060002         0.054800000         0.058350001 F F F
     0.696060002         0.054800000         0.175040007 T T T
     0.696060002         0.054800000         0.291740000 T T T
     0.696060002         0.054800000         0.408439994 T T T
     0.543659985         0.250000000         0.058350001 F F F
     0.543659985         0.250000000         0.175040007 T T T
     0.543659985         0.250000000         0.291740000 T T T
     0.543659985         0.250000000         0.408439994 T T T
     0.668659985         0.304800004         0.000000000 F F F
     0.668659985         0.304800004         0.116700001 T T T
     0.668659985         0.304800004         0.233390003 T T T
     0.668659985         0.304800004         0.350089997 T T T
     0.571060002         0.000000000         0.000000000 F F F
     0.571060002         0.000000000         0.116700001 T T T
     0.571060002         0.000000000         0.233390003 T T T
     0.571060002         0.000000000         0.350089997 T T T
     0.946060002         0.054800000         0.058350001 F F F
     0.946060002         0.054800000         0.175040007 T T T
     0.946060002         0.054800000         0.291740000 T T T
     0.946060002         0.054800000         0.408439994 T T T
     0.793659985         0.250000000         0.058350001 F F F
     0.793659985         0.250000000         0.175040007 T T T
     0.793659985         0.250000000         0.291740000 T T T
     0.793659985         0.250000000         0.408439994 T T T
     0.918659985         0.304800004         0.000000000 F F F
     0.918659985         0.304800004         0.116700001 T T T
     0.918659985         0.304800004         0.233390003 T T T
     0.918659985         0.304800004         0.350089997 T T T
     0.821060002         0.000000000         0.000000000 F F F
     0.821060002         0.000000000         0.116700001 T T T
     0.821060002         0.000000000         0.233390003 T T T
     0.821060002         0.000000000         0.350089997 T T T
     0.696060002         0.554799974         0.058350001 F F F
     0.696060002         0.554799974         0.175040007 T T T
     0.696060002         0.554799974         0.291740000 T T T
     0.696060002         0.554799974         0.408439994 T T T
     0.543659985         0.750000000         0.058350001 F F F
     0.543659985         0.750000000         0.175040007 T T T
     0.543659985         0.750000000         0.291740000 T T T
     0.543659985         0.750000000         0.408439994 T T T
     0.668659985         0.804799974         0.000000000 F F F
     0.668659985         0.804799974         0.116700001 T T T
     0.668659985         0.804799974         0.233390003 T T T
     0.668659985         0.804799974         0.350089997 T T T
     0.571060002         0.500000000         0.000000000 F F F
     0.571060002         0.500000000         0.116700001 T T T
     0.571060002         0.500000000         0.233390003 T T T
     0.571060002         0.500000000         0.350089997 T T T
     0.946060002         0.554799974         0.058350001 F F F
     0.946060002         0.554799974         0.175040007 T T T
     0.946060002         0.554799974         0.291740000 T T T
     0.946060002         0.554799974         0.408439994 T T T
     0.793659985         0.750000000         0.058350001 F F F
     0.793659985         0.750000000         0.175040007 T T T
     0.793659985         0.750000000         0.291740000 T T T
     0.793659985         0.750000000         0.408439994 T T T
     0.918659985         0.804799974         0.000000000 F F F
     0.918659985         0.804799974         0.116700001 T T T
     0.918659985         0.804799974         0.233390003 T T T
     0.918659985         0.804799974         0.350089997 T T T
     0.821060002         0.500000000         0.000000000 F F F
     0.821060002         0.500000000         0.116700001 T T T
     0.821060002         0.500000000         0.233390003 T T T
     0.821060002         0.500000000         0.350089997 T T T
