TiO2_rutile\(1\1\0)
1.0
       11.8360004425         0.0000000000         0.0000000000
        0.0000000000        12.9938001633         0.0000000000
        0.0000000000         0.0000000000        27.2817001343
   Ti    O
   64  128
Selective Dynamics
Direct
     0.125000000         0.168660000         0.046489999 F F F
     0.125000000         0.418660015         0.165560007 T T T
     0.125000000         0.168660000         0.284630001 T T T
     0.125000000         0.418660015         0.403699994 T T T
     0.000000000         0.418660015         0.046489999 F F F
     0.000000000         0.168660000         0.165560007 T T T
     0.000000000         0.418660015         0.284630001 T T T
     0.000000000         0.168660000         0.403699994 T T T
     0.375000000         0.168660000         0.046489999 F F F
     0.375000000         0.418660015         0.165560007 T T T
     0.375000000         0.168660000         0.284630001 T T T
     0.375000000         0.418660015         0.403699994 T T T
     0.250000000         0.418660015         0.046489999 F F F
     0.250000000         0.168660000         0.165560007 T T T
     0.250000000         0.418660015         0.284630001 T T T
     0.250000000         0.168660000         0.403699994 T T T
     0.125000000         0.668659985         0.046489999 F F F
     0.125000000         0.918659985         0.165560007 T T T
     0.125000000         0.668659985         0.284630001 T T T
     0.125000000         0.918659985         0.403699994 T T T
     0.000000000         0.918659985         0.046489999 F F F
     0.000000000         0.668659985         0.165560007 T T T
     0.000000000         0.918659985         0.284630001 T T T
     0.000000000         0.668659985         0.403699994 T T T
     0.375000000         0.668659985         0.046489999 F F F
     0.375000000         0.918659985         0.165560007 T T T
     0.375000000         0.668659985         0.284630001 T T T
     0.375000000         0.918659985         0.403699994 T T T
     0.250000000         0.918659985         0.046489999 F F F
     0.250000000         0.668659985         0.165560007 T T T
     0.250000000         0.918659985         0.284630001 T T T
     0.250000000         0.668659985         0.403699994 T T T
     0.625000000         0.168660000         0.046489999 F F F
     0.625000000         0.418660015         0.165560007 T T T
     0.625000000         0.168660000         0.284630001 T T T
     0.625000000         0.418660015         0.403699994 T T T
     0.500000000         0.418660015         0.046489999 F F F
     0.500000000         0.168660000         0.165560007 T T T
     0.500000000         0.418660015         0.284630001 T T T
     0.500000000         0.168660000         0.403699994 T T T
     0.875000000         0.168660000         0.046489999 F F F
     0.875000000         0.418660015         0.165560007 T T T
     0.875000000         0.168660000         0.284630001 T T T
     0.875000000         0.418660015         0.403699994 T T T
     0.750000000         0.418660015         0.046489999 F F F
     0.750000000         0.168660000         0.165560007 T T T
     0.750000000         0.418660015         0.284630001 T T T
     0.750000000         0.168660000         0.403699994 T T T
     0.625000000         0.668659985         0.046489999 F F F
     0.625000000         0.918659985         0.165560007 T T T
     0.625000000         0.668659985         0.284630001 T T T
     0.625000000         0.918659985         0.403699994 T T T
     0.500000000         0.918659985         0.046489999 F F F
     0.500000000         0.668659985         0.165560007 T T T
     0.500000000         0.918659985         0.284630001 T T T
     0.500000000         0.668659985         0.403699994 T T T
     0.875000000         0.668659985         0.046489999 F F F
     0.875000000         0.918659985         0.165560007 T T T
     0.875000000         0.668659985         0.284630001 T T T
     0.875000000         0.918659985         0.403699994 T T T
     0.750000000         0.918659985         0.046489999 F F F
     0.750000000         0.668659985         0.165560007 T T T
     0.750000000         0.918659985         0.284630001 T T T
     0.750000000         0.668659985         0.403699994 T T T
     0.125000000         0.418660015         0.000000000 F F F
     0.125000000         0.168660000         0.119070001 T T T
     0.125000000         0.418660015         0.238140002 T T T
     0.125000000         0.168660000         0.357210010 T T T
     0.125000000         0.418660015         0.092969999 F F F
     0.125000000         0.168660000         0.212040007 T T T
     0.125000000         0.418660015         0.331110001 T T T
     0.125000000         0.168660000         0.450179994 T T T
     0.000000000         0.266259998         0.046489999 F F F
     0.000000000         0.016260000         0.165560007 T T T
     0.000000000         0.266259998         0.284630001 T T T
     0.000000000         0.016260000         0.403699994 T T T
     0.000000000         0.071060002         0.046489999 F F F
     0.000000000         0.321060002         0.165560007 T T T
     0.000000000         0.071060002         0.284630001 T T T
     0.000000000         0.321060002         0.403699994 T T T
     0.375000000         0.418660015         0.000000000 F F F
     0.375000000         0.168660000         0.119070001 T T T
     0.375000000         0.418660015         0.238140002 T T T
     0.375000000         0.168660000         0.357210010 T T T
     0.375000000         0.418660015         0.092969999 F F F
     0.375000000         0.168660000         0.212040007 T T T
     0.375000000         0.418660015         0.331110001 T T T
     0.375000000         0.168660000         0.450179994 T T T
     0.250000000         0.266259998         0.046489999 F F F
     0.250000000         0.016260000         0.165560007 T T T
     0.250000000         0.266259998         0.284630001 T T T
     0.250000000         0.016260000         0.403699994 T T T
     0.250000000         0.071060002         0.046489999 F F F
     0.250000000         0.321060002         0.165560007 T T T
     0.250000000         0.071060002         0.284630001 T T T
     0.250000000         0.321060002         0.403699994 T T T
     0.125000000         0.918659985         0.000000000 F F F
     0.125000000         0.668659985         0.119070001 T T T
     0.125000000         0.918659985         0.238140002 T T T
     0.125000000         0.668659985         0.357210010 T T T
     0.125000000         0.918659985         0.092969999 F F F
     0.125000000         0.668659985         0.212040007 T T T
     0.125000000         0.918659985         0.331110001 T T T
     0.125000000         0.668659985         0.450179994 T T T
     0.000000000         0.766260028         0.046489999 F F F
     0.000000000         0.516260028         0.165560007 T T T
     0.000000000         0.766260028         0.284630001 T T T
     0.000000000         0.516260028         0.403699994 T T T
     0.000000000         0.571060002         0.046489999 F F F
     0.000000000         0.821060002         0.165560007 T T T
     0.000000000         0.571060002         0.284630001 T T T
     0.000000000         0.821060002         0.403699994 T T T
     0.375000000         0.918659985         0.000000000 F F F
     0.375000000         0.668659985         0.119070001 T T T
     0.375000000         0.918659985         0.238140002 T T T
     0.375000000         0.668659985         0.357210010 T T T
     0.375000000         0.918659985         0.092969999 F F F
     0.375000000         0.668659985         0.212040007 T T T
     0.375000000         0.918659985         0.331110001 T T T
     0.375000000         0.668659985         0.450179994 T T T
     0.250000000         0.766260028         0.046489999 F F F
     0.250000000         0.516260028         0.165560007 T T T
     0.250000000         0.766260028         0.284630001 T T T
     0.250000000         0.516260028         0.403699994 T T T
     0.250000000         0.571060002         0.046489999 F F F
     0.250000000         0.821060002         0.165560007 T T T
     0.250000000         0.571060002         0.284630001 T T T
     0.250000000         0.821060002         0.403699994 T T T
     0.625000000         0.418660015         0.000000000 F F F
     0.625000000         0.168660000         0.119070001 T T T
     0.625000000         0.418660015         0.238140002 T T T
     0.625000000         0.168660000         0.357210010 T T T
     0.625000000         0.418660015         0.092969999 F F F
     0.625000000         0.168660000         0.212040007 T T T
     0.625000000         0.418660015         0.331110001 T T T
     0.625000000         0.168660000         0.450179994 T T T
     0.500000000         0.266259998         0.046489999 F F F
     0.500000000         0.016260000         0.165560007 T T T
     0.500000000         0.266259998         0.284630001 T T T
     0.500000000         0.016260000         0.403699994 T T T
     0.500000000         0.071060002         0.046489999 F F F
     0.500000000         0.321060002         0.165560007 T T T
     0.500000000         0.071060002         0.284630001 T T T
     0.500000000         0.321060002         0.403699994 T T T
     0.875000000         0.418660015         0.000000000 F F F
     0.875000000         0.168660000         0.119070001 T T T
     0.875000000         0.418660015         0.238140002 T T T
     0.875000000         0.168660000         0.357210010 T T T
     0.875000000         0.418660015         0.092969999 F F F
     0.875000000         0.168660000         0.212040007 T T T
     0.875000000         0.418660015         0.331110001 T T T
     0.875000000         0.168660000         0.450179994 T T T
     0.750000000         0.266259998         0.046489999 F F F
     0.750000000         0.016260000         0.165560007 T T T
     0.750000000         0.266259998         0.284630001 T T T
     0.750000000         0.016260000         0.403699994 T T T
     0.750000000         0.071060002         0.046489999 F F F
     0.750000000         0.321060002         0.165560007 T T T
     0.750000000         0.071060002         0.284630001 T T T
     0.750000000         0.321060002         0.403699994 T T T
     0.625000000         0.918659985         0.000000000 F F F
     0.625000000         0.668659985         0.119070001 T T T
     0.625000000         0.918659985         0.238140002 T T T
     0.625000000         0.668659985         0.357210010 T T T
     0.625000000         0.918659985         0.092969999 F F F
     0.625000000         0.668659985         0.212040007 T T T
     0.625000000         0.918659985         0.331110001 T T T
     0.625000000         0.668659985         0.450179994 T T T
     0.500000000         0.766260028         0.046489999 F F F
     0.500000000         0.516260028         0.165560007 T T T
     0.500000000         0.766260028         0.284630001 T T T
     0.500000000         0.516260028         0.403699994 T T T
     0.500000000         0.571060002         0.046489999 F F F
     0.500000000         0.821060002         0.165560007 T T T
     0.500000000         0.571060002         0.284630001 T T T
     0.500000000         0.821060002         0.403699994 T T T
     0.875000000         0.918659985         0.000000000 F F F
     0.875000000         0.668659985         0.119070001 T T T
     0.875000000         0.918659985         0.238140002 T T T
     0.875000000         0.668659985         0.357210010 T T T
     0.875000000         0.918659985         0.092969999 F F F
     0.875000000         0.668659985         0.212040007 T T T
     0.875000000         0.918659985         0.331110001 T T T
     0.875000000         0.668659985         0.450179994 T T T
     0.750000000         0.766260028         0.046489999 F F F
     0.750000000         0.516260028         0.165560007 T T T
     0.750000000         0.766260028         0.284630001 T T T
     0.750000000         0.516260028         0.403699994 T T T
     0.750000000         0.571060002         0.046489999 F F F
     0.750000000         0.821060002         0.165560007 T T T
     0.750000000         0.571060002         0.284630001 T T T
     0.750000000         0.821060002         0.403699994 T T T
