CONTCAR\(2)                             
   1.00000000000000     
     5.8842725335485815    0.0009831563398822   -0.0020197515537284
    -0.0021032666366957    9.1459074164210516   -0.0052097787271536
     0.0394626600930410    0.0197366779495533   34.2028725863738501
   Ti   O 
    32    67
Selective dynamics
Direct
  0.1078799960000012  0.2397200019999985  0.0843300000000013   F   F   F
  0.1069029520696230  0.2470213162952788  0.2224405965924592   T   T   T
  0.1100317807871360  0.2419431142532917  0.3602603914801050   T   T   T
  0.1054932995100789  0.2348839079412443  0.5025007544245291   T   T   T
  0.3578799960000012  0.4897199870000009  0.0236799999999988   F   F   F
  0.3575839508484301  0.4943922904652343  0.1534899019235650   T   T   T
  0.3560830640063697  0.4976525902385560  0.2918244303203794   T   T   T
  0.3559157436210861  0.4956787401606801  0.4295102626979876   T   T   T
  0.6078799960000012  0.2397200019999985  0.0843300000000013   F   F   F
  0.6072612088922675  0.2470521607696787  0.2224550204604060   T   T   T
  0.6024956126135772  0.2419341178673294  0.3602546049971024   T   T   T
  0.6057845169248119  0.2348929598154560  0.5025023525536405   T   T   T
  0.8578799960000012  0.4897199870000009  0.0236799999999988   F   F   F
  0.8575752794913720  0.4939740785316755  0.1532884648094713   T   T   T
  0.8561100888135379  0.4936038773427820  0.2933901692495413   T   T   T
  0.8559083666387212  0.4949590632796733  0.4290874568411254   T   T   T
  0.1078799960000012  0.7397199870000009  0.0843300000000013   F   F   F
  0.1057071400873663  0.7437146755769508  0.2220386297403941   T   T   T
  0.1064337650368687  0.7491111379684615  0.3611796322532183   T   T   T
  0.1041108310039477  0.7307822964570284  0.5010516706763929   T   T   T
  0.3578799960000012  0.9897199870000009  0.0236799999999988   F   F   F
  0.3578046865904154  0.9937981932836746  0.1540943336345771   T   T   T
  0.3567500195617114  0.9942233577168457  0.2908355560632437   T   T   T
  0.3559223065840889  0.9857891398169515  0.4333519914039844   T   T   T
  0.6078799960000012  0.7397199870000009  0.0843300000000013   F   F   F
  0.6085730019476061  0.7436599385063668  0.2220600096704600   T   T   T
  0.6059119963711113  0.7490878015801389  0.3611690114291428   T   T   T
  0.6070642775731034  0.7307947366477326  0.5010507314293320   T   T   T
  0.8578799960000012  0.9897199870000009  0.0236799999999988   F   F   F
  0.8577836110808550  0.9948098786241245  0.1535806821097139   T   T   T
  0.8567613693239988  0.9963209258697666  0.2915862105469877   T   T   T
  0.8559189867525323  0.0025241231378808  0.4300051597309688   T   T   T
  0.1078799960000012  0.3921200039999988  0.0000000000000000   F   F   F
  0.1074630571199006  0.3953106318812951  0.1282507172216857   T   T   T
  0.1070861133162315  0.3972903287686160  0.2657701424729190   T   T   T
  0.1036849143276644  0.3970403982707496  0.4042609338722593   T   T   T
  0.1078799960000012  0.0873199999999983  0.0473599990000011   F   F   F
  0.1071448232130408  0.1032657296427344  0.1790342689660639   T   T   T
  0.1063099320022885  0.0996139774872587  0.3176579683703453   T   T   T
  0.1046434656447496  0.0986143606289144  0.4561312001972276   T   T   T
  0.3578799960000012  0.3373199999999983  0.0606499980000024   F   F   F
  0.3571836671953285  0.3520198677266644  0.1968114324755781   T   T   T
  0.3564195126231372  0.3505341605557808  0.3348303261247363   T   T   T
  0.3557628808825187  0.3378391782571698  0.4703998970219114   T   T   T
  0.3578799960000012  0.1421200039999988  0.1080100009999967   F   F   F
  0.3569017139630247  0.1466398818857631  0.2484999429617297   T   T   T
  0.3561555455084849  0.1485325317000764  0.3864373289075587   T   T   T
  0.3555025788591228  0.1209829844976881  0.5226405572521617   T   T   T
  0.6078799960000012  0.3921200039999988  0.0000000000000000   F   F   F
  0.6077047111405370  0.3953113149440033  0.1282504518450761   T   T   T
  0.6064818825200168  0.3972889122319687  0.2657703100862605   T   T   T
  0.6084362637779853  0.3970328586046993  0.4042600483129313   T   T   T
  0.6078799960000012  0.0873199999999983  0.0473599990000011   F   F   F
  0.6074601496328319  0.1032565767586461  0.1790353413539498   T   T   T
  0.6067648639176968  0.0996083616411777  0.3176570039159745   T   T   T
  0.6070138089973804  0.0986306538466884  0.4561276307269744   T   T   T
  0.8578799960000012  0.3373199999999983  0.0606499980000024   F   F   F
  0.8571801674550452  0.3521254310429084  0.1968561989520063   T   T   T
  0.8564196822822006  0.3505890506060215  0.3347263954766419   T   T   T
  0.8557566449311756  0.3421372858739167  0.4714439141917174   T   T   T
  0.8578799960000012  0.1421200039999988  0.1080100009999967   F   F   F
  0.8569170361978572  0.1466972882697509  0.2485002977460626   T   T   T
  0.8561610699097911  0.1469948133235683  0.3865169725544231   T   T   T
  0.8555126571414663  0.1184778324615532  0.5211230440338038   T   T   T
  0.1078799960000012  0.8921200039999988  0.0000000000000000   F   F   F
  0.1074306090700344  0.8952561085725423  0.1282934036843750   T   T   T
  0.1067740344189228  0.8966643690247056  0.2658960774198914   T   T   T
  0.1067713300435873  0.8965294080878642  0.4039632252764890   T   T   T
  0.1078799960000012  0.5873200300000008  0.0473599990000011   F   F   F
  0.1075116835647536  0.6026740031106435  0.1787972854873904   T   T   T
  0.1066429803078591  0.6006998521684047  0.3179676075464989   T   T   T
  0.1109244798130819  0.5944093711049176  0.4577958635098803   T   T   T
  0.3578799960000012  0.8373200300000008  0.0606499980000024   F   F   F
  0.3571706870208816  0.8519983464022662  0.1968393362310225   T   T   T
  0.3564363587684236  0.8499610152077763  0.3350312192222245   T   T   T
  0.3557275825127696  0.8504793792510393  0.4739648348612610   T   T   T
  0.3578799960000012  0.6421200039999988  0.1080100009999967   F   F   F
  0.3569045733929566  0.6471872322083276  0.2483755164070574   T   T   T
  0.3561691353580592  0.6458661320325191  0.3872933976942272   T   T   T
  0.3554529685772146  0.6836384175328437  0.5306458998768940   T   T   T
  0.6078799960000012  0.8921200039999988  0.0000000000000000   F   F   F
  0.6077299157261303  0.8952510963483031  0.1282942025277971   T   T   T
  0.6068300534952967  0.8966630692177586  0.2658951883459059   T   T   T
  0.6053819056550995  0.8965278241856258  0.4039661423594023   T   T   T
  0.6078799960000012  0.5873200300000008  0.0473599990000011   F   F   F
  0.6071622962519965  0.6026719545070164  0.1787982254232952   T   T   T
  0.6064300319200407  0.6007123307862647  0.3179704944785101   T   T   T
  0.6006926283865014  0.5944190724584024  0.4577925923948237   T   T   T
  0.8578799960000012  0.8373200300000008  0.0606499980000024   F   F   F
  0.8571799844309090  0.8519152181791304  0.1968432875840577   T   T   T
  0.8564437438018353  0.8497337502833373  0.3349934540588095   T   T   T
  0.8557693249534558  0.8435476740846928  0.4705143576519454   T   T   T
  0.8578799960000012  0.6421200039999988  0.1080100009999967   F   F   F
  0.8569160016200693  0.6474697533426429  0.2481916792042293   T   T   T
  0.8561703043250481  0.6472884513778200  0.3877479026582019   T   T   T
  0.8554725696248258  0.6163229690252445  0.5205642631442019   T   T   T
  0.3555574420737659  0.3487849009740902  0.5326465115529915   T   T   T
  0.8554302173550900  0.8402136302835147  0.5332126550978342   T   T   T
  0.8555398329181487  0.3411598874091401  0.5345241311812460   T   T   T
 
  0.00000000E+00  0.00000000E+00  0.00000000E+00
  0.00000000E+00  0.00000000E+00  0.00000000E+00
  0.00000000E+00  0.00000000E+00  0.00000000E+00
  0.00000000E+00  0.00000000E+00  0.00000000E+00
  0.00000000E+00  0.00000000E+00  0.00000000E+00
  0.00000000E+00  0.00000000E+00  0.00000000E+00
  0.00000000E+00  0.00000000E+00  0.00000000E+00
  0.00000000E+00  0.00000000E+00  0.00000000E+00
  0.00000000E+00  0.00000000E+00  0.00000000E+00
  0.00000000E+00  0.00000000E+00  0.00000000E+00
  0.00000000E+00  0.00000000E+00  0.00000000E+00
  0.00000000E+00  0.00000000E+00  0.00000000E+00
  0.00000000E+00  0.00000000E+00  0.00000000E+00
  0.00000000E+00  0.00000000E+00  0.00000000E+00
  0.00000000E+00  0.00000000E+00  0.00000000E+00
  0.00000000E+00  0.00000000E+00  0.00000000E+00
  0.00000000E+00  0.00000000E+00  0.00000000E+00
  0.00000000E+00  0.00000000E+00  0.00000000E+00
  0.00000000E+00  0.00000000E+00  0.00000000E+00
  0.00000000E+00  0.00000000E+00  0.00000000E+00
  0.00000000E+00  0.00000000E+00  0.00000000E+00
  0.00000000E+00  0.00000000E+00  0.00000000E+00
  0.00000000E+00  0.00000000E+00  0.00000000E+00
  0.00000000E+00  0.00000000E+00  0.00000000E+00
  0.00000000E+00  0.00000000E+00  0.00000000E+00
  0.00000000E+00  0.00000000E+00  0.00000000E+00
  0.00000000E+00  0.00000000E+00  0.00000000E+00
  0.00000000E+00  0.00000000E+00  0.00000000E+00
  0.00000000E+00  0.00000000E+00  0.00000000E+00
  0.00000000E+00  0.00000000E+00  0.00000000E+00
  0.00000000E+00  0.00000000E+00  0.00000000E+00
  0.00000000E+00  0.00000000E+00  0.00000000E+00
  0.00000000E+00  0.00000000E+00  0.00000000E+00
  0.00000000E+00  0.00000000E+00  0.00000000E+00
  0.00000000E+00  0.00000000E+00  0.00000000E+00
  0.00000000E+00  0.00000000E+00  0.00000000E+00
  0.00000000E+00  0.00000000E+00  0.00000000E+00
  0.00000000E+00  0.00000000E+00  0.00000000E+00
  0.00000000E+00  0.00000000E+00  0.00000000E+00
  0.00000000E+00  0.00000000E+00  0.00000000E+00
  0.00000000E+00  0.00000000E+00  0.00000000E+00
  0.00000000E+00  0.00000000E+00  0.00000000E+00
  0.00000000E+00  0.00000000E+00  0.00000000E+00
  0.00000000E+00  0.00000000E+00  0.00000000E+00
  0.00000000E+00  0.00000000E+00  0.00000000E+00
  0.00000000E+00  0.00000000E+00  0.00000000E+00
  0.00000000E+00  0.00000000E+00  0.00000000E+00
  0.00000000E+00  0.00000000E+00  0.00000000E+00
  0.00000000E+00  0.00000000E+00  0.00000000E+00
  0.00000000E+00  0.00000000E+00  0.00000000E+00
  0.00000000E+00  0.00000000E+00  0.00000000E+00
  0.00000000E+00  0.00000000E+00  0.00000000E+00
  0.00000000E+00  0.00000000E+00  0.00000000E+00
  0.00000000E+00  0.00000000E+00  0.00000000E+00
  0.00000000E+00  0.00000000E+00  0.00000000E+00
  0.00000000E+00  0.00000000E+00  0.00000000E+00
  0.00000000E+00  0.00000000E+00  0.00000000E+00
  0.00000000E+00  0.00000000E+00  0.00000000E+00
  0.00000000E+00  0.00000000E+00  0.00000000E+00
  0.00000000E+00  0.00000000E+00  0.00000000E+00
  0.00000000E+00  0.00000000E+00  0.00000000E+00
  0.00000000E+00  0.00000000E+00  0.00000000E+00
  0.00000000E+00  0.00000000E+00  0.00000000E+00
  0.00000000E+00  0.00000000E+00  0.00000000E+00
  0.00000000E+00  0.00000000E+00  0.00000000E+00
  0.00000000E+00  0.00000000E+00  0.00000000E+00
  0.00000000E+00  0.00000000E+00  0.00000000E+00
  0.00000000E+00  0.00000000E+00  0.00000000E+00
  0.00000000E+00  0.00000000E+00  0.00000000E+00
  0.00000000E+00  0.00000000E+00  0.00000000E+00
  0.00000000E+00  0.00000000E+00  0.00000000E+00
  0.00000000E+00  0.00000000E+00  0.00000000E+00
  0.00000000E+00  0.00000000E+00  0.00000000E+00
  0.00000000E+00  0.00000000E+00  0.00000000E+00
  0.00000000E+00  0.00000000E+00  0.00000000E+00
  0.00000000E+00  0.00000000E+00  0.00000000E+00
  0.00000000E+00  0.00000000E+00  0.00000000E+00
  0.00000000E+00  0.00000000E+00  0.00000000E+00
  0.00000000E+00  0.00000000E+00  0.00000000E+00
  0.00000000E+00  0.00000000E+00  0.00000000E+00
  0.00000000E+00  0.00000000E+00  0.00000000E+00
  0.00000000E+00  0.00000000E+00  0.00000000E+00
  0.00000000E+00  0.00000000E+00  0.00000000E+00
  0.00000000E+00  0.00000000E+00  0.00000000E+00
  0.00000000E+00  0.00000000E+00  0.00000000E+00
  0.00000000E+00  0.00000000E+00  0.00000000E+00
  0.00000000E+00  0.00000000E+00  0.00000000E+00
  0.00000000E+00  0.00000000E+00  0.00000000E+00
  0.00000000E+00  0.00000000E+00  0.00000000E+00
  0.00000000E+00  0.00000000E+00  0.00000000E+00
  0.00000000E+00  0.00000000E+00  0.00000000E+00
  0.00000000E+00  0.00000000E+00  0.00000000E+00
  0.00000000E+00  0.00000000E+00  0.00000000E+00
  0.00000000E+00  0.00000000E+00  0.00000000E+00
  0.00000000E+00  0.00000000E+00  0.00000000E+00
  0.00000000E+00  0.00000000E+00  0.00000000E+00
  0.00000000E+00  0.00000000E+00  0.00000000E+00
  0.00000000E+00  0.00000000E+00  0.00000000E+00
  0.00000000E+00  0.00000000E+00  0.00000000E+00
