CONTCAR
1.0
       11.7840995789         0.0000000000         0.0000000000
        0.0000000000        13.0141000748         0.0000000000
        0.0000000000         0.0000000000        25.6679992676
   Ti    O    H
   64  130    1
Direct
     0.125000000         0.168660000         0.046489999
     0.125000000         0.418660015         0.166099995
     0.125000000         0.168660000         0.312119991
     0.125000000         0.418660015         0.423860013
     0.000000000         0.418660015         0.046489999
     0.000000000         0.168660000         0.175520003
     0.000000000         0.418660015         0.297219992
     0.000000000         0.168660000         0.442840010
     0.375000000         0.168660000         0.046489999
     0.375000000         0.418660015         0.166099995
     0.375000000         0.168660000         0.312119991
     0.375000000         0.418660015         0.423860013
     0.250000000         0.418660015         0.046489999
     0.250000000         0.168660000         0.175520003
     0.250000000         0.418660015         0.297219992
     0.250000000         0.168660000         0.442840010
     0.125000000         0.668659985         0.046489999
     0.125000000         0.918659985         0.166099995
     0.125000000         0.668659985         0.312119991
     0.125000000         0.918659985         0.423860013
     0.000000000         0.918659985         0.046489999
     0.000000000         0.668659985         0.175520003
     0.000000000         0.918659985         0.297219992
     0.000000000         0.668659985         0.442840010
     0.375000000         0.668659985         0.046489999
     0.375000000         0.918659985         0.166099995
     0.375000000         0.668659985         0.312119991
     0.375000000         0.918659985         0.423860013
     0.250000000         0.918659985         0.046489999
     0.250000000         0.668659985         0.175520003
     0.250000000         0.918659985         0.297219992
     0.250000000         0.668659985         0.442840010
     0.625000000         0.168660000         0.046489999
     0.625000000         0.418660015         0.166099995
     0.625000000         0.168660000         0.312119991
     0.625000000         0.418660015         0.423860013
     0.500000000         0.418660015         0.046489999
     0.500000000         0.168660000         0.175520003
     0.500000000         0.418660015         0.297219992
     0.500000000         0.168660000         0.442840010
     0.875000000         0.168660000         0.046489999
     0.875000000         0.418660015         0.166099995
     0.875000000         0.168660000         0.312119991
     0.875000000         0.418660015         0.423860013
     0.750000000         0.418660015         0.046489999
     0.750000000         0.168660000         0.175520003
     0.750000000         0.418660015         0.297219992
     0.750000000         0.168660000         0.442840010
     0.625000000         0.668659985         0.046489999
     0.625000000         0.918659985         0.166099995
     0.625000000         0.668659985         0.312119991
     0.625000000         0.918659985         0.423860013
     0.500000000         0.918659985         0.046489999
     0.500000000         0.668659985         0.175520003
     0.500000000         0.918659985         0.297219992
     0.500000000         0.668659985         0.442840010
     0.875000000         0.668659985         0.046489999
     0.875000000         0.918659985         0.166099995
     0.875000000         0.668659985         0.312119991
     0.875000000         0.918659985         0.423860013
     0.750000000         0.918659985         0.046489999
     0.750000000         0.668659985         0.175520003
     0.750000000         0.918659985         0.297219992
     0.750000000         0.668659985         0.442840010
     0.125000000         0.418660015         0.000000000
     0.125000000         0.168660000         0.120039999
     0.125000000         0.418660015         0.252169997
     0.125000000         0.168660000         0.383509994
     0.125000000         0.418660015         0.092969999
     0.125000000         0.168660000         0.221599996
     0.125000000         0.418660015         0.353520006
     0.125000000         0.168660000         0.485000014
     0.000000000         0.266259998         0.046489999
     0.000000000         0.015990000         0.172260001
     0.000000000         0.267300010         0.303700000
     0.000000000         0.013090000         0.438389987
     0.000000000         0.071060002         0.046489999
     0.000000000         0.321330011         0.172260001
     0.000000000         0.070019998         0.303700000
     0.000000000         0.324229985         0.438389987
     0.375000000         0.418660015         0.000000000
     0.375000000         0.168660000         0.120039999
     0.375000000         0.418660015         0.252169997
     0.375000000         0.168660000         0.383509994
     0.375000000         0.418660015         0.092969999
     0.375000000         0.168660000         0.221599996
     0.375000000         0.418660015         0.353520006
     0.375000000         0.168660000         0.485000014
     0.250000000         0.266259998         0.046489999
     0.250000000         0.015990000         0.172260001
     0.250000000         0.267300010         0.303700000
     0.250000000         0.013090000         0.438389987
     0.250000000         0.071060002         0.046489999
     0.250000000         0.321330011         0.172260001
     0.250000000         0.070019998         0.303700000
     0.250000000         0.324229985         0.438389987
     0.125000000         0.918659985         0.000000000
     0.125000000         0.668659985         0.120039999
     0.125000000         0.918659985         0.252169997
     0.125000000         0.668659985         0.383509994
     0.125000000         0.918659985         0.092969999
     0.125000000         0.668659985         0.221599996
     0.125000000         0.918659985         0.353520006
     0.125000000         0.668659985         0.485000014
     0.000000000         0.766260028         0.046489999
     0.000000000         0.515990019         0.172260001
     0.000000000         0.767300010         0.303700000
     0.000000000         0.513090014         0.438389987
     0.000000000         0.571060002         0.046489999
     0.000000000         0.821330011         0.172260001
     0.000000000         0.570020020         0.303700000
     0.000000000         0.824230015         0.438389987
     0.375000000         0.918659985         0.000000000
     0.375000000         0.668659985         0.120039999
     0.375000000         0.918659985         0.252169997
     0.375000000         0.668659985         0.383509994
     0.375000000         0.918659985         0.092969999
     0.375000000         0.668659985         0.221599996
     0.375000000         0.918659985         0.353520006
     0.375000000         0.668659985         0.485000014
     0.250000000         0.766260028         0.046489999
     0.250000000         0.515990019         0.172260001
     0.250000000         0.767300010         0.303700000
     0.250000000         0.513090014         0.438389987
     0.250000000         0.571060002         0.046489999
     0.250000000         0.821330011         0.172260001
     0.250000000         0.570020020         0.303700000
     0.250000000         0.824230015         0.438389987
     0.625000000         0.418660015         0.000000000
     0.625000000         0.168660000         0.120039999
     0.625000000         0.418660015         0.252169997
     0.625000000         0.168660000         0.383509994
     0.625000000         0.418660015         0.092969999
     0.625000000         0.168660000         0.221599996
     0.625000000         0.418660015         0.353520006
     0.625000000         0.168660000         0.485000014
     0.500000000         0.266259998         0.046489999
     0.500000000         0.015990000         0.172260001
     0.500000000         0.267300010         0.303700000
     0.500000000         0.013090000         0.438389987
     0.500000000         0.071060002         0.046489999
     0.500000000         0.321330011         0.172260001
     0.500000000         0.070019998         0.303700000
     0.500000000         0.324229985         0.438389987
     0.875000000         0.418660015         0.000000000
     0.875000000         0.168660000         0.120039999
     0.875000000         0.418660015         0.252169997
     0.875000000         0.168660000         0.383509994
     0.875000000         0.418660015         0.092969999
     0.875000000         0.168660000         0.221599996
     0.875000000         0.418660015         0.353520006
     0.875000000         0.168660000         0.485000014
     0.750000000         0.266259998         0.046489999
     0.750000000         0.015990000         0.172260001
     0.750000000         0.267300010         0.303700000
     0.750000000         0.013090000         0.438389987
     0.750000000         0.071060002         0.046489999
     0.750000000         0.321330011         0.172260001
     0.750000000         0.070019998         0.303700000
     0.750000000         0.324229985         0.438389987
     0.625000000         0.918659985         0.000000000
     0.625000000         0.668659985         0.120039999
     0.625000000         0.918659985         0.252169997
     0.625000000         0.668659985         0.383509994
     0.625000000         0.918659985         0.092969999
     0.625000000         0.668659985         0.221599996
     0.625000000         0.918659985         0.353520006
     0.625000000         0.668659985         0.485000014
     0.500000000         0.766260028         0.046489999
     0.500000000         0.515990019         0.172260001
     0.500000000         0.767300010         0.303700000
     0.500000000         0.513090014         0.438389987
     0.500000000         0.571060002         0.046489999
     0.500000000         0.821330011         0.172260001
     0.500000000         0.570020020         0.303700000
     0.500000000         0.824230015         0.438389987
     0.875000000         0.918659985         0.000000000
     0.875000000         0.668659985         0.120039999
     0.875000000         0.918659985         0.252169997
     0.875000000         0.668659985         0.383509994
     0.875000000         0.918659985         0.092969999
     0.875000000         0.668659985         0.221599996
     0.875000000         0.918659985         0.353520006
     0.875000000         0.668659985         0.485000014
     0.750000000         0.766260028         0.046489999
     0.750000000         0.515990019         0.172260001
     0.750000000         0.767300010         0.303700000
     0.750000000         0.513090014         0.438389987
     0.750000000         0.571060002         0.046489999
     0.750000000         0.821330011         0.172260001
     0.750000000         0.570020020         0.303700000
     0.750000000         0.824230015         0.438389987
     0.871980011         0.416960001         0.501760006
     0.781539977         0.423559994         0.541620016
     0.776889980         0.443599999         0.583609998
