TiO2_rutile\(0\1\0)                     
   1.00000000000000     
    11.7666261236616201    0.0000000000000000    0.0000000000000000
     0.0000000000000000    9.1566516371437299    0.0043034666204135
     0.0000000000000000    0.0198940602482248   31.1428464906308555
   Ti   O 
    64   128
Selective dynamics
Direct
  0.0000000000000000  0.4023999870000026  0.0971599969999986   F   F   F
 -0.0000000000000000  0.4038788304430743  0.2483788361967396   T   T   T
  0.0000000000000000  0.4008900255940568  0.3999488658812274   T   T   T
  0.0000000000000000  0.3936209284430394  0.5511736221927609   T   T   T
  0.1250000000000000  0.1524000020000003  0.0272799990000010   F   F   F
  0.1250000000000000  0.1541916369686396  0.1732235750591394   T   T   T
  0.1250000000000000  0.1525283995407118  0.3251314424941094   T   T   T
  0.1250000000000000  0.1481451412450489  0.4777407145936456   T   T   T
  0.2500000000000000  0.4023999870000026  0.0971599969999986   F   F   F
  0.2500000000000000  0.4038788304430743  0.2483788361967396   T   T   T
  0.2500000000000000  0.4008900255940568  0.3999488658812274   T   T   T
  0.2500000000000000  0.3936209284430394  0.5511736221927609   T   T   T
  0.3750000000000000  0.1524000020000003  0.0272799990000010   F   F   F
  0.3750000000000000  0.1541916369686396  0.1732235750591394   T   T   T
  0.3750000000000000  0.1525283995407117  0.3251314424941094   T   T   T
  0.3750000000000000  0.1481451412450489  0.4777407145936456   T   T   T
  0.0000000000000000  0.9024000169999979  0.0971599969999986   F   F   F
  0.0000000000000000  0.9038788604430698  0.2483788361967396   T   T   T
  0.0000000000000000  0.9008900555940521  0.3999488658812274   T   T   T
 -0.0000000000000000  0.8936209584430351  0.5511736221927609   T   T   T
  0.1250000000000000  0.6524000169999979  0.0272799990000010   F   F   F
  0.1250000000000000  0.6541916519686369  0.1732235750591394   T   T   T
  0.1250000000000000  0.6525284145407086  0.3251314424941094   T   T   T
  0.1250000000000000  0.6481451562450468  0.4777407145936456   T   T   T
  0.2500000000000000  0.9024000169999979  0.0971599969999986   F   F   F
  0.2500000000000000  0.9038788604430698  0.2483788361967396   T   T   T
  0.2500000000000000  0.9008900555940521  0.3999488658812274   T   T   T
  0.2500000000000000  0.8936209584430351  0.5511736221927609   T   T   T
  0.3750000000000000  0.6524000169999979  0.0272799990000010   F   F   F
  0.3750000000000000  0.6541916519686369  0.1732235750591394   T   T   T
  0.3750000000000000  0.6525284145407086  0.3251314424941094   T   T   T
  0.3750000000000000  0.6481451562450468  0.4777407145936456   T   T   T
  0.5000000000000000  0.4023999870000026  0.0971599969999986   F   F   F
  0.5000000000000000  0.4038788304430743  0.2483788361967396   T   T   T
  0.5000000000000000  0.4008900255940568  0.3999488658812274   T   T   T
  0.5000000000000000  0.3936209284430394  0.5511736221927609   T   T   T
  0.6250000000000000  0.1524000020000003  0.0272799990000010   F   F   F
  0.6250000000000000  0.1541916369686396  0.1732235750591394   T   T   T
  0.6250000000000000  0.1525283995407117  0.3251314424941094   T   T   T
  0.6250000000000000  0.1481451412450489  0.4777407145936456   T   T   T
  0.7500000000000000  0.4023999870000026  0.0971599969999986   F   F   F
  0.7500000000000000  0.4038788304430743  0.2483788361967396   T   T   T
  0.7500000000000000  0.4008900255940568  0.3999488658812274   T   T   T
  0.7500000000000000  0.3936209284430394  0.5511736221927609   T   T   T
  0.8750000000000000  0.1524000020000003  0.0272799990000010   F   F   F
  0.8750000000000000  0.1541916369686396  0.1732235750591394   T   T   T
  0.8750000000000000  0.1525283995407118  0.3251314424941094   T   T   T
  0.8750000000000000  0.1481451412450489  0.4777407145936456   T   T   T
  0.5000000000000000  0.9024000169999979  0.0971599969999986   F   F   F
  0.5000000000000000  0.9038788604430698  0.2483788361967396   T   T   T
  0.5000000000000000  0.9008900555940521  0.3999488658812274   T   T   T
  0.5000000000000000  0.8936209584430350  0.5511736221927609   T   T   T
  0.6250000000000000  0.6524000169999979  0.0272799990000010   F   F   F
  0.6250000000000000  0.6541916519686369  0.1732235750591394   T   T   T
  0.6250000000000000  0.6525284145407086  0.3251314424941094   T   T   T
  0.6250000000000000  0.6481451562450468  0.4777407145936456   T   T   T
  0.7500000000000000  0.9024000169999979  0.0971599969999986   F   F   F
  0.7500000000000000  0.9038788604430698  0.2483788361967396   T   T   T
  0.7500000000000000  0.9008900555940521  0.3999488658812274   T   T   T
  0.7500000000000000  0.8936209584430351  0.5511736221927609   T   T   T
  0.8750000000000000  0.6524000169999979  0.0272799990000010   F   F   F
  0.8750000000000000  0.6541916519686369  0.1732235750591394   T   T   T
  0.8750000000000000  0.6525284145407086  0.3251314424941094   T   T   T
  0.8750000000000000  0.6481451562450468  0.4777407145936456   T   T   T
  0.0000000000000000  0.0548000000000002  0.0000000000000000   F   F   F
  0.0000000000000000  0.0568175759846198  0.1448058202358509   T   T   T
 -0.0000000000000000  0.0585976595494455  0.2960483248100438   T   T   T
 -0.0000000000000000  0.0586595110466342  0.4486857113368370   T   T   T
  0.0000000000000000  0.2500000000000000  0.0545599980000020   F   F   F
 -0.0000000000000000  0.2614215319856336  0.2013519305205346   T   T   T
  0.0000000000000000  0.2607254209204917  0.3534294899092617   T   T   T
 -0.0000000000000000  0.2652870058410180  0.5054710736207354   T   T   T
  0.1250000000000000  0.0000000000000000  0.0698800010000014   F   F   F
  0.1250000000000000  0.0110363687476735  0.2202477162220128   T   T   T
  0.1250000000000000  0.0113320466783158  0.3718436165514974   T   T   T
  0.1250000000000000  0.0250040397693144  0.5256377734197815   T   T   T
  0.1250000000000000  0.3048000040000005  0.1244399990000034   F   F   F
  0.1250000000000000  0.3083158002805598  0.2773996823612900   T   T   T
  0.1250000000000000  0.3097770817182672  0.4292261911131719   T   T   T
  0.1250000000000000  0.3393538903304270  0.5834672703306480   T   T   T
  0.2500000000000000  0.0548000000000002  0.0000000000000000   F   F   F
  0.2500000000000000  0.0568175759846198  0.1448058202358509   T   T   T
  0.2500000000000000  0.0585976595494455  0.2960483248100438   T   T   T
  0.2500000000000000  0.0586595110466342  0.4486857113368370   T   T   T
  0.2500000000000000  0.2500000000000000  0.0545599980000020   F   F   F
  0.2500000000000000  0.2614215319856336  0.2013519305205346   T   T   T
  0.2500000000000000  0.2607254209204917  0.3534294899092617   T   T   T
  0.2500000000000000  0.2652870058410180  0.5054710736207354   T   T   T
  0.3750000000000000  0.0000000000000000  0.0698800010000014   F   F   F
  0.3750000000000000  0.0110363687476735  0.2202477162220128   T   T   T
  0.3750000000000000  0.0113320466783158  0.3718436165514974   T   T   T
  0.3750000000000000  0.0250040397693144  0.5256377734197815   T   T   T
  0.3750000000000000  0.3048000040000005  0.1244399990000034   F   F   F
  0.3750000000000000  0.3083158002805598  0.2773996823612900   T   T   T
  0.3750000000000000  0.3097770817182672  0.4292261911131719   T   T   T
  0.3750000000000000  0.3393538903304270  0.5834672703306480   T   T   T
  0.0000000000000000  0.5547999739999980  0.0000000000000000   F   F   F
  0.0000000000000000  0.5568175499846174  0.1448058202358509   T   T   T
 -0.0000000000000000  0.5585976335494440  0.2960483248100438   T   T   T
  0.0000000000000000  0.5586594850466320  0.4486857113368370   T   T   T
  0.0000000000000000  0.7500000000000000  0.0545599980000020   F   F   F
  0.0000000000000000  0.7614215319856338  0.2013519305205346   T   T   T
  0.0000000000000000  0.7607254209204926  0.3534294899092617   T   T   T
  0.0000000000000000  0.7652870058410172  0.5054710736207354   T   T   T
  0.1250000000000000  0.5000000000000000  0.0698800010000014   F   F   F
  0.1250000000000000  0.5110363687476737  0.2202477162220128   T   T   T
  0.1250000000000000  0.5113320466783158  0.3718436165514974   T   T   T
  0.1250000000000000  0.5250040397693144  0.5256377734197815   T   T   T
  0.1250000000000000  0.8047999739999980  0.1244399990000034   F   F   F
  0.1250000000000000  0.8083157702805571  0.2773996823612900   T   T   T
  0.1250000000000000  0.8097770517182640  0.4292261911131719   T   T   T
  0.1250000000000000  0.8393538603304243  0.5834672703306480   T   T   T
  0.2500000000000000  0.5547999739999980  0.0000000000000000   F   F   F
  0.2500000000000000  0.5568175499846174  0.1448058202358509   T   T   T
  0.2500000000000000  0.5585976335494440  0.2960483248100438   T   T   T
  0.2500000000000000  0.5586594850466320  0.4486857113368370   T   T   T
  0.2500000000000000  0.7500000000000000  0.0545599980000020   F   F   F
  0.2500000000000000  0.7614215319856338  0.2013519305205346   T   T   T
  0.2500000000000000  0.7607254209204926  0.3534294899092617   T   T   T
  0.2500000000000000  0.7652870058410172  0.5054710736207354   T   T   T
  0.3750000000000000  0.5000000000000000  0.0698800010000014   F   F   F
  0.3750000000000000  0.5110363687476737  0.2202477162220128   T   T   T
  0.3750000000000000  0.5113320466783158  0.3718436165514974   T   T   T
  0.3750000000000000  0.5250040397693144  0.5256377734197815   T   T   T
  0.3750000000000000  0.8047999739999980  0.1244399990000034   F   F   F
  0.3750000000000000  0.8083157702805571  0.2773996823612900   T   T   T
  0.3750000000000000  0.8097770517182640  0.4292261911131719   T   T   T
  0.3750000000000000  0.8393538603304243  0.5834672703306480   T   T   T
  0.5000000000000000  0.0548000000000002  0.0000000000000000   F   F   F
  0.5000000000000000  0.0568175759846198  0.1448058202358509   T   T   T
  0.5000000000000000  0.0585976595494455  0.2960483248100438   T   T   T
  0.5000000000000000  0.0586595110466342  0.4486857113368370   T   T   T
  0.5000000000000000  0.2500000000000000  0.0545599980000020   F   F   F
  0.5000000000000000  0.2614215319856336  0.2013519305205346   T   T   T
  0.5000000000000000  0.2607254209204917  0.3534294899092617   T   T   T
  0.5000000000000000  0.2652870058410180  0.5054710736207354   T   T   T
  0.6250000000000000  0.0000000000000000  0.0698800010000014   F   F   F
  0.6250000000000000  0.0110363687476735  0.2202477162220128   T   T   T
  0.6250000000000000  0.0113320466783158  0.3718436165514974   T   T   T
  0.6250000000000000  0.0250040397693144  0.5256377734197815   T   T   T
  0.6250000000000000  0.3048000040000005  0.1244399990000034   F   F   F
  0.6250000000000000  0.3083158002805598  0.2773996823612900   T   T   T
  0.6250000000000000  0.3097770817182672  0.4292261911131719   T   T   T
  0.6250000000000000  0.3393538903304270  0.5834672703306480   T   T   T
  0.7500000000000000  0.0548000000000002  0.0000000000000000   F   F   F
  0.7500000000000000  0.0568175759846198  0.1448058202358509   T   T   T
  0.7500000000000000  0.0585976595494456  0.2960483248100438   T   T   T
  0.7500000000000000  0.0586595110466342  0.4486857113368370   T   T   T
  0.7500000000000000  0.2500000000000000  0.0545599980000020   F   F   F
  0.7500000000000000  0.2614215319856337  0.2013519305205346   T   T   T
  0.7500000000000000  0.2607254209204917  0.3534294899092617   T   T   T
  0.7500000000000000  0.2652870058410180  0.5054710736207354   T   T   T
  0.8750000000000000  0.0000000000000000  0.0698800010000014   F   F   F
  0.8750000000000000  0.0110363687476735  0.2202477162220128   T   T   T
  0.8750000000000000  0.0113320466783158  0.3718436165514974   T   T   T
  0.8750000000000000  0.0250040397693144  0.5256377734197815   T   T   T
  0.8750000000000000  0.3048000040000005  0.1244399990000034   F   F   F
  0.8750000000000000  0.3083158002805598  0.2773996823612900   T   T   T
  0.8750000000000000  0.3097770817182672  0.4292261911131719   T   T   T
  0.8750000000000000  0.3393538903304270  0.5834672703306480   T   T   T
  0.5000000000000000  0.5547999739999980  0.0000000000000000   F   F   F
  0.5000000000000000  0.5568175499846174  0.1448058202358509   T   T   T
  0.5000000000000000  0.5585976335494440  0.2960483248100438   T   T   T
  0.5000000000000000  0.5586594850466320  0.4486857113368370   T   T   T
  0.5000000000000000  0.7500000000000000  0.0545599980000020   F   F   F
  0.5000000000000000  0.7614215319856338  0.2013519305205346   T   T   T
  0.5000000000000000  0.7607254209204926  0.3534294899092617   T   T   T
  0.5000000000000000  0.7652870058410172  0.5054710736207355   T   T   T
  0.6250000000000000  0.5000000000000000  0.0698800010000014   F   F   F
  0.6250000000000000  0.5110363687476737  0.2202477162220128   T   T   T
  0.6250000000000000  0.5113320466783158  0.3718436165514974   T   T   T
  0.6250000000000000  0.5250040397693144  0.5256377734197815   T   T   T
  0.6250000000000000  0.8047999739999980  0.1244399990000034   F   F   F
  0.6250000000000000  0.8083157702805571  0.2773996823612900   T   T   T
  0.6250000000000000  0.8097770517182640  0.4292261911131719   T   T   T
  0.6250000000000000  0.8393538603304243  0.5834672703306480   T   T   T
  0.7500000000000000  0.5547999739999980  0.0000000000000000   F   F   F
  0.7500000000000000  0.5568175499846174  0.1448058202358509   T   T   T
  0.7500000000000000  0.5585976335494440  0.2960483248100438   T   T   T
  0.7500000000000000  0.5586594850466320  0.4486857113368370   T   T   T
  0.7500000000000000  0.7500000000000000  0.0545599980000020   F   F   F
  0.7500000000000000  0.7614215319856338  0.2013519305205346   T   T   T
  0.7500000000000000  0.7607254209204926  0.3534294899092617   T   T   T
  0.7500000000000000  0.7652870058410172  0.5054710736207354   T   T   T
  0.8750000000000000  0.5000000000000000  0.0698800010000014   F   F   F
  0.8750000000000000  0.5110363687476737  0.2202477162220128   T   T   T
  0.8750000000000000  0.5113320466783158  0.3718436165514974   T   T   T
  0.8750000000000000  0.5250040397693144  0.5256377734197815   T   T   T
  0.8750000000000000  0.8047999739999980  0.1244399990000034   F   F   F
  0.8750000000000000  0.8083157702805571  0.2773996823612900   T   T   T
  0.8750000000000000  0.8097770517182640  0.4292261911131719   T   T   T
  0.8750000000000000  0.8393538603304243  0.5834672703306480   T   T   T
 
  0.00000000E+00  0.00000000E+00  0.00000000E+00
  0.00000000E+00  0.00000000E+00  0.00000000E+00
  0.00000000E+00  0.00000000E+00  0.00000000E+00
  0.00000000E+00  0.00000000E+00  0.00000000E+00
  0.00000000E+00  0.00000000E+00  0.00000000E+00
  0.00000000E+00  0.00000000E+00  0.00000000E+00
  0.00000000E+00  0.00000000E+00  0.00000000E+00
  0.00000000E+00  0.00000000E+00  0.00000000E+00
  0.00000000E+00  0.00000000E+00  0.00000000E+00
  0.00000000E+00  0.00000000E+00  0.00000000E+00
  0.00000000E+00  0.00000000E+00  0.00000000E+00
  0.00000000E+00  0.00000000E+00  0.00000000E+00
  0.00000000E+00  0.00000000E+00  0.00000000E+00
  0.00000000E+00  0.00000000E+00  0.00000000E+00
  0.00000000E+00  0.00000000E+00  0.00000000E+00
  0.00000000E+00  0.00000000E+00  0.00000000E+00
  0.00000000E+00  0.00000000E+00  0.00000000E+00
  0.00000000E+00  0.00000000E+00  0.00000000E+00
  0.00000000E+00  0.00000000E+00  0.00000000E+00
  0.00000000E+00  0.00000000E+00  0.00000000E+00
  0.00000000E+00  0.00000000E+00  0.00000000E+00
  0.00000000E+00  0.00000000E+00  0.00000000E+00
  0.00000000E+00  0.00000000E+00  0.00000000E+00
  0.00000000E+00  0.00000000E+00  0.00000000E+00
  0.00000000E+00  0.00000000E+00  0.00000000E+00
  0.00000000E+00  0.00000000E+00  0.00000000E+00
  0.00000000E+00  0.00000000E+00  0.00000000E+00
  0.00000000E+00  0.00000000E+00  0.00000000E+00
  0.00000000E+00  0.00000000E+00  0.00000000E+00
  0.00000000E+00  0.00000000E+00  0.00000000E+00
  0.00000000E+00  0.00000000E+00  0.00000000E+00
  0.00000000E+00  0.00000000E+00  0.00000000E+00
  0.00000000E+00  0.00000000E+00  0.00000000E+00
  0.00000000E+00  0.00000000E+00  0.00000000E+00
  0.00000000E+00  0.00000000E+00  0.00000000E+00
  0.00000000E+00  0.00000000E+00  0.00000000E+00
  0.00000000E+00  0.00000000E+00  0.00000000E+00
  0.00000000E+00  0.00000000E+00  0.00000000E+00
  0.00000000E+00  0.00000000E+00  0.00000000E+00
  0.00000000E+00  0.00000000E+00  0.00000000E+00
  0.00000000E+00  0.00000000E+00  0.00000000E+00
  0.00000000E+00  0.00000000E+00  0.00000000E+00
  0.00000000E+00  0.00000000E+00  0.00000000E+00
  0.00000000E+00  0.00000000E+00  0.00000000E+00
  0.00000000E+00  0.00000000E+00  0.00000000E+00
  0.00000000E+00  0.00000000E+00  0.00000000E+00
  0.00000000E+00  0.00000000E+00  0.00000000E+00
  0.00000000E+00  0.00000000E+00  0.00000000E+00
  0.00000000E+00  0.00000000E+00  0.00000000E+00
  0.00000000E+00  0.00000000E+00  0.00000000E+00
  0.00000000E+00  0.00000000E+00  0.00000000E+00
  0.00000000E+00  0.00000000E+00  0.00000000E+00
  0.00000000E+00  0.00000000E+00  0.00000000E+00
  0.00000000E+00  0.00000000E+00  0.00000000E+00
  0.00000000E+00  0.00000000E+00  0.00000000E+00
  0.00000000E+00  0.00000000E+00  0.00000000E+00
  0.00000000E+00  0.00000000E+00  0.00000000E+00
  0.00000000E+00  0.00000000E+00  0.00000000E+00
  0.00000000E+00  0.00000000E+00  0.00000000E+00
  0.00000000E+00  0.00000000E+00  0.00000000E+00
  0.00000000E+00  0.00000000E+00  0.00000000E+00
  0.00000000E+00  0.00000000E+00  0.00000000E+00
  0.00000000E+00  0.00000000E+00  0.00000000E+00
  0.00000000E+00  0.00000000E+00  0.00000000E+00
  0.00000000E+00  0.00000000E+00  0.00000000E+00
  0.00000000E+00  0.00000000E+00  0.00000000E+00
  0.00000000E+00  0.00000000E+00  0.00000000E+00
  0.00000000E+00  0.00000000E+00  0.00000000E+00
  0.00000000E+00  0.00000000E+00  0.00000000E+00
  0.00000000E+00  0.00000000E+00  0.00000000E+00
  0.00000000E+00  0.00000000E+00  0.00000000E+00
  0.00000000E+00  0.00000000E+00  0.00000000E+00
  0.00000000E+00  0.00000000E+00  0.00000000E+00
  0.00000000E+00  0.00000000E+00  0.00000000E+00
  0.00000000E+00  0.00000000E+00  0.00000000E+00
  0.00000000E+00  0.00000000E+00  0.00000000E+00
  0.00000000E+00  0.00000000E+00  0.00000000E+00
  0.00000000E+00  0.00000000E+00  0.00000000E+00
  0.00000000E+00  0.00000000E+00  0.00000000E+00
  0.00000000E+00  0.00000000E+00  0.00000000E+00
  0.00000000E+00  0.00000000E+00  0.00000000E+00
  0.00000000E+00  0.00000000E+00  0.00000000E+00
  0.00000000E+00  0.00000000E+00  0.00000000E+00
  0.00000000E+00  0.00000000E+00  0.00000000E+00
  0.00000000E+00  0.00000000E+00  0.00000000E+00
  0.00000000E+00  0.00000000E+00  0.00000000E+00
  0.00000000E+00  0.00000000E+00  0.00000000E+00
  0.00000000E+00  0.00000000E+00  0.00000000E+00
  0.00000000E+00  0.00000000E+00  0.00000000E+00
  0.00000000E+00  0.00000000E+00  0.00000000E+00
  0.00000000E+00  0.00000000E+00  0.00000000E+00
  0.00000000E+00  0.00000000E+00  0.00000000E+00
  0.00000000E+00  0.00000000E+00  0.00000000E+00
  0.00000000E+00  0.00000000E+00  0.00000000E+00
  0.00000000E+00  0.00000000E+00  0.00000000E+00
  0.00000000E+00  0.00000000E+00  0.00000000E+00
  0.00000000E+00  0.00000000E+00  0.00000000E+00
  0.00000000E+00  0.00000000E+00  0.00000000E+00
  0.00000000E+00  0.00000000E+00  0.00000000E+00
  0.00000000E+00  0.00000000E+00  0.00000000E+00
  0.00000000E+00  0.00000000E+00  0.00000000E+00
  0.00000000E+00  0.00000000E+00  0.00000000E+00
  0.00000000E+00  0.00000000E+00  0.00000000E+00
  0.00000000E+00  0.00000000E+00  0.00000000E+00
  0.00000000E+00  0.00000000E+00  0.00000000E+00
  0.00000000E+00  0.00000000E+00  0.00000000E+00
  0.00000000E+00  0.00000000E+00  0.00000000E+00
  0.00000000E+00  0.00000000E+00  0.00000000E+00
  0.00000000E+00  0.00000000E+00  0.00000000E+00
  0.00000000E+00  0.00000000E+00  0.00000000E+00
  0.00000000E+00  0.00000000E+00  0.00000000E+00
  0.00000000E+00  0.00000000E+00  0.00000000E+00
  0.00000000E+00  0.00000000E+00  0.00000000E+00
  0.00000000E+00  0.00000000E+00  0.00000000E+00
  0.00000000E+00  0.00000000E+00  0.00000000E+00
  0.00000000E+00  0.00000000E+00  0.00000000E+00
  0.00000000E+00  0.00000000E+00  0.00000000E+00
  0.00000000E+00  0.00000000E+00  0.00000000E+00
  0.00000000E+00  0.00000000E+00  0.00000000E+00
  0.00000000E+00  0.00000000E+00  0.00000000E+00
  0.00000000E+00  0.00000000E+00  0.00000000E+00
  0.00000000E+00  0.00000000E+00  0.00000000E+00
  0.00000000E+00  0.00000000E+00  0.00000000E+00
  0.00000000E+00  0.00000000E+00  0.00000000E+00
  0.00000000E+00  0.00000000E+00  0.00000000E+00
  0.00000000E+00  0.00000000E+00  0.00000000E+00
  0.00000000E+00  0.00000000E+00  0.00000000E+00
  0.00000000E+00  0.00000000E+00  0.00000000E+00
  0.00000000E+00  0.00000000E+00  0.00000000E+00
  0.00000000E+00  0.00000000E+00  0.00000000E+00
  0.00000000E+00  0.00000000E+00  0.00000000E+00
  0.00000000E+00  0.00000000E+00  0.00000000E+00
  0.00000000E+00  0.00000000E+00  0.00000000E+00
  0.00000000E+00  0.00000000E+00  0.00000000E+00
  0.00000000E+00  0.00000000E+00  0.00000000E+00
  0.00000000E+00  0.00000000E+00  0.00000000E+00
  0.00000000E+00  0.00000000E+00  0.00000000E+00
  0.00000000E+00  0.00000000E+00  0.00000000E+00
  0.00000000E+00  0.00000000E+00  0.00000000E+00
  0.00000000E+00  0.00000000E+00  0.00000000E+00
  0.00000000E+00  0.00000000E+00  0.00000000E+00
  0.00000000E+00  0.00000000E+00  0.00000000E+00
  0.00000000E+00  0.00000000E+00  0.00000000E+00
  0.00000000E+00  0.00000000E+00  0.00000000E+00
  0.00000000E+00  0.00000000E+00  0.00000000E+00
  0.00000000E+00  0.00000000E+00  0.00000000E+00
  0.00000000E+00  0.00000000E+00  0.00000000E+00
  0.00000000E+00  0.00000000E+00  0.00000000E+00
  0.00000000E+00  0.00000000E+00  0.00000000E+00
  0.00000000E+00  0.00000000E+00  0.00000000E+00
  0.00000000E+00  0.00000000E+00  0.00000000E+00
  0.00000000E+00  0.00000000E+00  0.00000000E+00
  0.00000000E+00  0.00000000E+00  0.00000000E+00
  0.00000000E+00  0.00000000E+00  0.00000000E+00
  0.00000000E+00  0.00000000E+00  0.00000000E+00
  0.00000000E+00  0.00000000E+00  0.00000000E+00
  0.00000000E+00  0.00000000E+00  0.00000000E+00
  0.00000000E+00  0.00000000E+00  0.00000000E+00
  0.00000000E+00  0.00000000E+00  0.00000000E+00
  0.00000000E+00  0.00000000E+00  0.00000000E+00
  0.00000000E+00  0.00000000E+00  0.00000000E+00
  0.00000000E+00  0.00000000E+00  0.00000000E+00
  0.00000000E+00  0.00000000E+00  0.00000000E+00
  0.00000000E+00  0.00000000E+00  0.00000000E+00
  0.00000000E+00  0.00000000E+00  0.00000000E+00
  0.00000000E+00  0.00000000E+00  0.00000000E+00
  0.00000000E+00  0.00000000E+00  0.00000000E+00
  0.00000000E+00  0.00000000E+00  0.00000000E+00
  0.00000000E+00  0.00000000E+00  0.00000000E+00
  0.00000000E+00  0.00000000E+00  0.00000000E+00
  0.00000000E+00  0.00000000E+00  0.00000000E+00
  0.00000000E+00  0.00000000E+00  0.00000000E+00
  0.00000000E+00  0.00000000E+00  0.00000000E+00
  0.00000000E+00  0.00000000E+00  0.00000000E+00
  0.00000000E+00  0.00000000E+00  0.00000000E+00
  0.00000000E+00  0.00000000E+00  0.00000000E+00
  0.00000000E+00  0.00000000E+00  0.00000000E+00
  0.00000000E+00  0.00000000E+00  0.00000000E+00
  0.00000000E+00  0.00000000E+00  0.00000000E+00
  0.00000000E+00  0.00000000E+00  0.00000000E+00
  0.00000000E+00  0.00000000E+00  0.00000000E+00
  0.00000000E+00  0.00000000E+00  0.00000000E+00
  0.00000000E+00  0.00000000E+00  0.00000000E+00
  0.00000000E+00  0.00000000E+00  0.00000000E+00
  0.00000000E+00  0.00000000E+00  0.00000000E+00
  0.00000000E+00  0.00000000E+00  0.00000000E+00
  0.00000000E+00  0.00000000E+00  0.00000000E+00
  0.00000000E+00  0.00000000E+00  0.00000000E+00
  0.00000000E+00  0.00000000E+00  0.00000000E+00
  0.00000000E+00  0.00000000E+00  0.00000000E+00
  0.00000000E+00  0.00000000E+00  0.00000000E+00
  0.00000000E+00  0.00000000E+00  0.00000000E+00
