TiO2_rutile\(0\1\0)
1.0
       11.8360004425         0.0000000000         0.0000000000
        0.0000000000         9.1879997253         0.0000000000
        0.0000000000         0.0000000000        32.8725013733
   Ti    O
   64  128
Selective Dynamics
Direct
     0.000000000         0.402399987         0.097159997 F F F
     0.000000000         0.402399987         0.236910000 T T T
     0.000000000         0.402399987         0.376659989 T T T
     0.000000000         0.402399987         0.516409993 T T T
     0.125000000         0.152400002         0.027279999 F F F
     0.125000000         0.152400002         0.167030007 T T T
     0.125000000         0.152400002         0.306780010 T T T
     0.125000000         0.152400002         0.446539998 T T T
     0.250000000         0.402399987         0.097159997 F F F
     0.250000000         0.402399987         0.236910000 T T T
     0.250000000         0.402399987         0.376659989 T T T
     0.250000000         0.402399987         0.516409993 T T T
     0.375000000         0.152400002         0.027279999 F F F
     0.375000000         0.152400002         0.167030007 T T T
     0.375000000         0.152400002         0.306780010 T T T
     0.375000000         0.152400002         0.446539998 T T T
     0.000000000         0.902400017         0.097159997 F F F
     0.000000000         0.902400017         0.236910000 T T T
     0.000000000         0.902400017         0.376659989 T T T
     0.000000000         0.902400017         0.516409993 T T T
     0.125000000         0.652400017         0.027279999 F F F
     0.125000000         0.652400017         0.167030007 T T T
     0.125000000         0.652400017         0.306780010 T T T
     0.125000000         0.652400017         0.446539998 T T T
     0.250000000         0.902400017         0.097159997 F F F
     0.250000000         0.902400017         0.236910000 T T T
     0.250000000         0.902400017         0.376659989 T T T
     0.250000000         0.902400017         0.516409993 T T T
     0.375000000         0.652400017         0.027279999 F F F
     0.375000000         0.652400017         0.167030007 T T T
     0.375000000         0.652400017         0.306780010 T T T
     0.375000000         0.652400017         0.446539998 T T T
     0.500000000         0.402399987         0.097159997 F F F
     0.500000000         0.402399987         0.236910000 T T T
     0.500000000         0.402399987         0.376659989 T T T
     0.500000000         0.402399987         0.516409993 T T T
     0.625000000         0.152400002         0.027279999 F F F
     0.625000000         0.152400002         0.167030007 T T T
     0.625000000         0.152400002         0.306780010 T T T
     0.625000000         0.152400002         0.446539998 T T T
     0.750000000         0.402399987         0.097159997 F F F
     0.750000000         0.402399987         0.236910000 T T T
     0.750000000         0.402399987         0.376659989 T T T
     0.750000000         0.402399987         0.516409993 T T T
     0.875000000         0.152400002         0.027279999 F F F
     0.875000000         0.152400002         0.167030007 T T T
     0.875000000         0.152400002         0.306780010 T T T
     0.875000000         0.152400002         0.446539998 T T T
     0.500000000         0.902400017         0.097159997 F F F
     0.500000000         0.902400017         0.236910000 T T T
     0.500000000         0.902400017         0.376659989 T T T
     0.500000000         0.902400017         0.516409993 T T T
     0.625000000         0.652400017         0.027279999 F F F
     0.625000000         0.652400017         0.167030007 T T T
     0.625000000         0.652400017         0.306780010 T T T
     0.625000000         0.652400017         0.446539998 T T T
     0.750000000         0.902400017         0.097159997 F F F
     0.750000000         0.902400017         0.236910000 T T T
     0.750000000         0.902400017         0.376659989 T T T
     0.750000000         0.902400017         0.516409993 T T T
     0.875000000         0.652400017         0.027279999 F F F
     0.875000000         0.652400017         0.167030007 T T T
     0.875000000         0.652400017         0.306780010 T T T
     0.875000000         0.652400017         0.446539998 T T T
     0.000000000         0.054800000         0.000000000 F F F
     0.000000000         0.054800000         0.139750004 T T T
     0.000000000         0.054800000         0.279500008 T T T
     0.000000000         0.054800000         0.419259995 T T T
     0.000000000         0.250000000         0.054559998 F F F
     0.000000000         0.250000000         0.194309995 T T T
     0.000000000         0.250000000         0.334060013 T T T
     0.000000000         0.250000000         0.473820001 T T T
     0.125000000         0.000000000         0.069880001 F F F
     0.125000000         0.000000000         0.209629998 T T T
     0.125000000         0.000000000         0.349379987 T T T
     0.125000000         0.000000000         0.489129990 T T T
     0.125000000         0.304800004         0.124439999 F F F
     0.125000000         0.304800004         0.264189988 T T T
     0.125000000         0.304800004         0.403939992 T T T
     0.125000000         0.304800004         0.543690026 T T T
     0.250000000         0.054800000         0.000000000 F F F
     0.250000000         0.054800000         0.139750004 T T T
     0.250000000         0.054800000         0.279500008 T T T
     0.250000000         0.054800000         0.419259995 T T T
     0.250000000         0.250000000         0.054559998 F F F
     0.250000000         0.250000000         0.194309995 T T T
     0.250000000         0.250000000         0.334060013 T T T
     0.250000000         0.250000000         0.473820001 T T T
     0.375000000         0.000000000         0.069880001 F F F
     0.375000000         0.000000000         0.209629998 T T T
     0.375000000         0.000000000         0.349379987 T T T
     0.375000000         0.000000000         0.489129990 T T T
     0.375000000         0.304800004         0.124439999 F F F
     0.375000000         0.304800004         0.264189988 T T T
     0.375000000         0.304800004         0.403939992 T T T
     0.375000000         0.304800004         0.543690026 T T T
     0.000000000         0.554799974         0.000000000 F F F
     0.000000000         0.554799974         0.139750004 T T T
     0.000000000         0.554799974         0.279500008 T T T
     0.000000000         0.554799974         0.419259995 T T T
     0.000000000         0.750000000         0.054559998 F F F
     0.000000000         0.750000000         0.194309995 T T T
     0.000000000         0.750000000         0.334060013 T T T
     0.000000000         0.750000000         0.473820001 T T T
     0.125000000         0.500000000         0.069880001 F F F
     0.125000000         0.500000000         0.209629998 T T T
     0.125000000         0.500000000         0.349379987 T T T
     0.125000000         0.500000000         0.489129990 T T T
     0.125000000         0.804799974         0.124439999 F F F
     0.125000000         0.804799974         0.264189988 T T T
     0.125000000         0.804799974         0.403939992 T T T
     0.125000000         0.804799974         0.543690026 T T T
     0.250000000         0.554799974         0.000000000 F F F
     0.250000000         0.554799974         0.139750004 T T T
     0.250000000         0.554799974         0.279500008 T T T
     0.250000000         0.554799974         0.419259995 T T T
     0.250000000         0.750000000         0.054559998 F F F
     0.250000000         0.750000000         0.194309995 T T T
     0.250000000         0.750000000         0.334060013 T T T
     0.250000000         0.750000000         0.473820001 T T T
     0.375000000         0.500000000         0.069880001 F F F
     0.375000000         0.500000000         0.209629998 T T T
     0.375000000         0.500000000         0.349379987 T T T
     0.375000000         0.500000000         0.489129990 T T T
     0.375000000         0.804799974         0.124439999 F F F
     0.375000000         0.804799974         0.264189988 T T T
     0.375000000         0.804799974         0.403939992 T T T
     0.375000000         0.804799974         0.543690026 T T T
     0.500000000         0.054800000         0.000000000 F F F
     0.500000000         0.054800000         0.139750004 T T T
     0.500000000         0.054800000         0.279500008 T T T
     0.500000000         0.054800000         0.419259995 T T T
     0.500000000         0.250000000         0.054559998 F F F
     0.500000000         0.250000000         0.194309995 T T T
     0.500000000         0.250000000         0.334060013 T T T
     0.500000000         0.250000000         0.473820001 T T T
     0.625000000         0.000000000         0.069880001 F F F
     0.625000000         0.000000000         0.209629998 T T T
     0.625000000         0.000000000         0.349379987 T T T
     0.625000000         0.000000000         0.489129990 T T T
     0.625000000         0.304800004         0.124439999 F F F
     0.625000000         0.304800004         0.264189988 T T T
     0.625000000         0.304800004         0.403939992 T T T
     0.625000000         0.304800004         0.543690026 T T T
     0.750000000         0.054800000         0.000000000 F F F
     0.750000000         0.054800000         0.139750004 T T T
     0.750000000         0.054800000         0.279500008 T T T
     0.750000000         0.054800000         0.419259995 T T T
     0.750000000         0.250000000         0.054559998 F F F
     0.750000000         0.250000000         0.194309995 T T T
     0.750000000         0.250000000         0.334060013 T T T
     0.750000000         0.250000000         0.473820001 T T T
     0.875000000         0.000000000         0.069880001 F F F
     0.875000000         0.000000000         0.209629998 T T T
     0.875000000         0.000000000         0.349379987 T T T
     0.875000000         0.000000000         0.489129990 T T T
     0.875000000         0.304800004         0.124439999 F F F
     0.875000000         0.304800004         0.264189988 T T T
     0.875000000         0.304800004         0.403939992 T T T
     0.875000000         0.304800004         0.543690026 T T T
     0.500000000         0.554799974         0.000000000 F F F
     0.500000000         0.554799974         0.139750004 T T T
     0.500000000         0.554799974         0.279500008 T T T
     0.500000000         0.554799974         0.419259995 T T T
     0.500000000         0.750000000         0.054559998 F F F
     0.500000000         0.750000000         0.194309995 T T T
     0.500000000         0.750000000         0.334060013 T T T
     0.500000000         0.750000000         0.473820001 T T T
     0.625000000         0.500000000         0.069880001 F F F
     0.625000000         0.500000000         0.209629998 T T T
     0.625000000         0.500000000         0.349379987 T T T
     0.625000000         0.500000000         0.489129990 T T T
     0.625000000         0.804799974         0.124439999 F F F
     0.625000000         0.804799974         0.264189988 T T T
     0.625000000         0.804799974         0.403939992 T T T
     0.625000000         0.804799974         0.543690026 T T T
     0.750000000         0.554799974         0.000000000 F F F
     0.750000000         0.554799974         0.139750004 T T T
     0.750000000         0.554799974         0.279500008 T T T
     0.750000000         0.554799974         0.419259995 T T T
     0.750000000         0.750000000         0.054559998 F F F
     0.750000000         0.750000000         0.194309995 T T T
     0.750000000         0.750000000         0.334060013 T T T
     0.750000000         0.750000000         0.473820001 T T T
     0.875000000         0.500000000         0.069880001 F F F
     0.875000000         0.500000000         0.209629998 T T T
     0.875000000         0.500000000         0.349379987 T T T
     0.875000000         0.500000000         0.489129990 T T T
     0.875000000         0.804799974         0.124439999 F F F
     0.875000000         0.804799974         0.264189988 T T T
     0.875000000         0.804799974         0.403939992 T T T
     0.875000000         0.804799974         0.543690026 T T T
