CONTCAR\(2)                             
   1.00000000000000     
     5.9069725188371676   -0.0029590889115478   -0.0084625436931670
    -0.0059587253819080    9.1590446638606000   -0.0042913359851018
    -0.0078405234236099    0.0700164931663531   34.1523644547953467
   Ti   O    H 
    32    67     1
Selective dynamics
Direct
  0.1078799960000012  0.2397200019999985  0.0843300000000013   F   F   F
  0.1079114816210126  0.2489202584253288  0.2215082589990535   T   T   T
  0.1092666538394324  0.2272701851657206  0.3557305164582208   T   T   T
  0.1057028691151942  0.2361306389380445  0.4988007510865687   T   T   T
  0.3578799960000012  0.4897199870000009  0.0236799999999988   F   F   F
  0.3575322560896043  0.4932761006116350  0.1520338539549006   T   T   T
  0.3547029379652684  0.4946138356032196  0.2920046130218888   T   T   T
  0.3441466556622296  0.4786010989229272  0.4204001865537496   T   T   T
  0.6078799960000012  0.2397200019999985  0.0843300000000013   F   F   F
  0.6076940902868702  0.2499958914739217  0.2214598291921634   T   T   T
  0.6109008546278877  0.2340329995881242  0.3578460043841781   T   T   T
  0.6068625273961729  0.2451194721932271  0.4990518505306769   T   T   T
  0.8578799960000012  0.4897199870000009  0.0236799999999988   F   F   F
  0.8584132898629507  0.4932692639987789  0.1520411455829269   T   T   T
  0.8548310820042879  0.4943682628753986  0.2920721971982662   T   T   T
  0.8817087143093179  0.4957455476721350  0.4263512405655998   T   T   T
  0.1078799960000012  0.7397199870000009  0.0843300000000013   F   F   F
  0.1064342138618190  0.7395199088429598  0.2205962436352781   T   T   T
  0.1099636016134415  0.7571405675436992  0.3596034944067369   T   T   T
  0.1082738703692930  0.7250394497585779  0.4989942426750237   T   T   T
  0.3578799960000012  0.9897199870000009  0.0236799999999988   F   F   F
  0.3567188082945473  0.9934648544576723  0.1534454016025369   T   T   T
  0.3606181658511678  0.9916988182406430  0.2874549999989350   T   T   T
  0.3614217587128034  0.9875122471712608  0.4330445943297310   T   T   T
  0.6078799960000012  0.7397199870000009  0.0843300000000013   F   F   F
  0.6067175916600719  0.7377963140866500  0.2201851323007280   T   T   T
  0.6095486760798687  0.7536541225597443  0.3600244366159320   T   T   T
  0.6132931417023672  0.7674897976746387  0.5101257272815316   T   T   T
  0.8578799960000012  0.9897199870000009  0.0236799999999988   F   F   F
  0.8564612814578016  0.9936676279134540  0.1534303627728532   T   T   T
  0.8570393485280129  0.9923733424237138  0.2875811726313885   T   T   T
  0.8580545828921630  0.9877849322210099  0.4315682065469457   T   T   T
  0.1078799960000012  0.3921200039999988  0.0000000000000000   F   F   F
  0.1077224607595263  0.3947783376151359  0.1273656741676151   T   T   T
  0.1104418967937945  0.3958811424335174  0.2637660950253725   T   T   T
  0.0956045337621607  0.3933717063554049  0.3985536089251811   T   T   T
  0.1078799960000012  0.0873199999999983  0.0473599990000011   F   F   F
  0.1085032831895328  0.1009186209219161  0.1784708146278587   T   T   T
  0.1102331216264287  0.0931860316278938  0.3147339487305176   T   T   T
  0.1101516175705049  0.1028407436165272  0.4536151947214156   T   T   T
  0.3578799960000012  0.3373199999999983  0.0606499980000024   F   F   F
  0.3583778855857344  0.3494544418437854  0.1953420264956720   T   T   T
  0.3602223004376089  0.3483111473244255  0.3326303993657220   T   T   T
  0.3795222721450270  0.3511659346823948  0.4660379858362667   T   T   T
  0.3578799960000012  0.1421200039999988  0.1080100009999967   F   F   F
  0.3588994769664118  0.1442435384279738  0.2470927552615089   T   T   T
  0.3590530151047762  0.1520621278949577  0.3846502466629930   T   T   T
  0.3608459414230231  0.1332852876407425  0.5194675036741924   T   T   T
  0.6078799960000012  0.3921200039999988  0.0000000000000000   F   F   F
  0.6079659838566274  0.3949035544517284  0.1273802155172981   T   T   T
  0.6076654835372400  0.3956985804134872  0.2637369810054835   T   T   T
  0.6251579423732289  0.4069434743698015  0.4027260831550705   T   T   T
  0.6078799960000012  0.0873199999999983  0.0473599990000011   F   F   F
  0.6087179528008474  0.1009282387130519  0.1784320013785775   T   T   T
  0.6082812806025560  0.0939137111712417  0.3156425452308201   T   T   T
  0.6102114645024417  0.1019279168074644  0.4538167202485677   T   T   T
  0.8578799960000012  0.3373199999999983  0.0606499980000024   F   F   F
  0.8586263905011113  0.3496686235127317  0.1954402415061676   T   T   T
  0.8581774923505078  0.3449076441466543  0.3315468020212156   T   T   T
  0.8605449026011476  0.3509043416985020  0.4676354057588012   T   T   T
  0.8578799960000012  0.1421200039999988  0.1080100009999967   F   F   F
  0.8586343279438596  0.1447422526131732  0.2472643695650304   T   T   T
  0.8600585871984097  0.1465540741517144  0.3834895903642486   T   T   T
  0.8610246923183456  0.1356639932454992  0.5196911097284220   T   T   T
  0.1078799960000012  0.8921200039999988  0.0000000000000000   F   F   F
  0.1079701216800288  0.8945534061737695  0.1275437800265274   T   T   T
  0.1080810208649865  0.8937979012329611  0.2635655987788941   T   T   T
  0.1143407454661519  0.8970473357364241  0.4015795600918822   T   T   T
  0.1078799960000012  0.5873200300000008  0.0473599990000011   F   F   F
  0.1086043088034528  0.5992799772144803  0.1777079698366305   T   T   T
  0.1078280557754500  0.5967139287426440  0.3171081009312340   T   T   T
  0.1415109486768524  0.5902336052962702  0.4501582967402689   T   T   T
  0.3578799960000012  0.8373200300000008  0.0606499980000024   F   F   F
  0.3589770920653933  0.8482356132562281  0.1954414583135031   T   T   T
  0.3570196593346789  0.8473367034820816  0.3324955168199777   T   T   T
  0.3645634010036680  0.8496207064003464  0.4722393409197601   T   T   T
  0.3578799960000012  0.6421200039999988  0.1080100009999967   F   F   F
  0.3582716390458185  0.6456816117057264  0.2469836712320019   T   T   T
  0.3682062891596080  0.6450014872592392  0.3850600690397625   T   T   T
  0.3528427861106035  0.6560205466428232  0.5245277452995588   T   T   T
  0.6078799960000012  0.8921200039999988  0.0000000000000000   F   F   F
  0.6079194206950334  0.8945875221262393  0.1275064598850572   T   T   T
  0.6093057741273585  0.8932393837474233  0.2637448255248289   T   T   T
  0.6046816319193129  0.9004401580676730  0.4008161943860729   T   T   T
  0.6078799960000012  0.5873200300000008  0.0473599990000011   F   F   F
  0.6082609259038476  0.5991072712217385  0.1777397373165638   T   T   T
  0.6109674400023587  0.5989754898465882  0.3162251093794151   T   T   T
  0.8578799960000012  0.8373200300000008  0.0606499980000024   F   F   F
  0.8580672775177879  0.8482147774606255  0.1954432536548706   T   T   T
  0.8628611477121023  0.8470740709204817  0.3325908799289028   T   T   T
  0.8513340466198596  0.8515343171679364  0.4691593136454631   T   T   T
  0.8578799960000012  0.6421200039999988  0.1080100009999967   F   F   F
  0.8587657541408684  0.6447967140619526  0.2467163823250840   T   T   T
  0.8542180314409246  0.6530017877403722  0.3880298295078193   T   T   T
  0.8355906246076464  0.6225402404925213  0.5071056500857178   T   T   T
  0.3496384218335250  0.3600053524877102  0.5281962076716409   T   T   T
  0.0396565980964832  0.8686560732689143  0.5395137487053329   T   T   T
  0.6680912292507144  0.8743461022964659  0.5515712205504596   T   T   T
  0.8520673183475721  0.3609766428407490  0.5295608676778478   T   T   T
  0.0539872700650838  0.8513131646344658  0.5676147987717024   T   T   T
 
  0.00000000E+00  0.00000000E+00  0.00000000E+00
  0.00000000E+00  0.00000000E+00  0.00000000E+00
  0.00000000E+00  0.00000000E+00  0.00000000E+00
  0.00000000E+00  0.00000000E+00  0.00000000E+00
  0.00000000E+00  0.00000000E+00  0.00000000E+00
  0.00000000E+00  0.00000000E+00  0.00000000E+00
  0.00000000E+00  0.00000000E+00  0.00000000E+00
  0.00000000E+00  0.00000000E+00  0.00000000E+00
  0.00000000E+00  0.00000000E+00  0.00000000E+00
  0.00000000E+00  0.00000000E+00  0.00000000E+00
  0.00000000E+00  0.00000000E+00  0.00000000E+00
  0.00000000E+00  0.00000000E+00  0.00000000E+00
  0.00000000E+00  0.00000000E+00  0.00000000E+00
  0.00000000E+00  0.00000000E+00  0.00000000E+00
  0.00000000E+00  0.00000000E+00  0.00000000E+00
  0.00000000E+00  0.00000000E+00  0.00000000E+00
  0.00000000E+00  0.00000000E+00  0.00000000E+00
  0.00000000E+00  0.00000000E+00  0.00000000E+00
  0.00000000E+00  0.00000000E+00  0.00000000E+00
  0.00000000E+00  0.00000000E+00  0.00000000E+00
  0.00000000E+00  0.00000000E+00  0.00000000E+00
  0.00000000E+00  0.00000000E+00  0.00000000E+00
  0.00000000E+00  0.00000000E+00  0.00000000E+00
  0.00000000E+00  0.00000000E+00  0.00000000E+00
  0.00000000E+00  0.00000000E+00  0.00000000E+00
  0.00000000E+00  0.00000000E+00  0.00000000E+00
  0.00000000E+00  0.00000000E+00  0.00000000E+00
  0.00000000E+00  0.00000000E+00  0.00000000E+00
  0.00000000E+00  0.00000000E+00  0.00000000E+00
  0.00000000E+00  0.00000000E+00  0.00000000E+00
  0.00000000E+00  0.00000000E+00  0.00000000E+00
  0.00000000E+00  0.00000000E+00  0.00000000E+00
  0.00000000E+00  0.00000000E+00  0.00000000E+00
  0.00000000E+00  0.00000000E+00  0.00000000E+00
  0.00000000E+00  0.00000000E+00  0.00000000E+00
  0.00000000E+00  0.00000000E+00  0.00000000E+00
  0.00000000E+00  0.00000000E+00  0.00000000E+00
  0.00000000E+00  0.00000000E+00  0.00000000E+00
  0.00000000E+00  0.00000000E+00  0.00000000E+00
  0.00000000E+00  0.00000000E+00  0.00000000E+00
  0.00000000E+00  0.00000000E+00  0.00000000E+00
  0.00000000E+00  0.00000000E+00  0.00000000E+00
  0.00000000E+00  0.00000000E+00  0.00000000E+00
  0.00000000E+00  0.00000000E+00  0.00000000E+00
  0.00000000E+00  0.00000000E+00  0.00000000E+00
  0.00000000E+00  0.00000000E+00  0.00000000E+00
  0.00000000E+00  0.00000000E+00  0.00000000E+00
  0.00000000E+00  0.00000000E+00  0.00000000E+00
  0.00000000E+00  0.00000000E+00  0.00000000E+00
  0.00000000E+00  0.00000000E+00  0.00000000E+00
  0.00000000E+00  0.00000000E+00  0.00000000E+00
  0.00000000E+00  0.00000000E+00  0.00000000E+00
  0.00000000E+00  0.00000000E+00  0.00000000E+00
  0.00000000E+00  0.00000000E+00  0.00000000E+00
  0.00000000E+00  0.00000000E+00  0.00000000E+00
  0.00000000E+00  0.00000000E+00  0.00000000E+00
  0.00000000E+00  0.00000000E+00  0.00000000E+00
  0.00000000E+00  0.00000000E+00  0.00000000E+00
  0.00000000E+00  0.00000000E+00  0.00000000E+00
  0.00000000E+00  0.00000000E+00  0.00000000E+00
  0.00000000E+00  0.00000000E+00  0.00000000E+00
  0.00000000E+00  0.00000000E+00  0.00000000E+00
  0.00000000E+00  0.00000000E+00  0.00000000E+00
  0.00000000E+00  0.00000000E+00  0.00000000E+00
  0.00000000E+00  0.00000000E+00  0.00000000E+00
  0.00000000E+00  0.00000000E+00  0.00000000E+00
  0.00000000E+00  0.00000000E+00  0.00000000E+00
  0.00000000E+00  0.00000000E+00  0.00000000E+00
  0.00000000E+00  0.00000000E+00  0.00000000E+00
  0.00000000E+00  0.00000000E+00  0.00000000E+00
  0.00000000E+00  0.00000000E+00  0.00000000E+00
  0.00000000E+00  0.00000000E+00  0.00000000E+00
  0.00000000E+00  0.00000000E+00  0.00000000E+00
  0.00000000E+00  0.00000000E+00  0.00000000E+00
  0.00000000E+00  0.00000000E+00  0.00000000E+00
  0.00000000E+00  0.00000000E+00  0.00000000E+00
  0.00000000E+00  0.00000000E+00  0.00000000E+00
  0.00000000E+00  0.00000000E+00  0.00000000E+00
  0.00000000E+00  0.00000000E+00  0.00000000E+00
  0.00000000E+00  0.00000000E+00  0.00000000E+00
  0.00000000E+00  0.00000000E+00  0.00000000E+00
  0.00000000E+00  0.00000000E+00  0.00000000E+00
  0.00000000E+00  0.00000000E+00  0.00000000E+00
  0.00000000E+00  0.00000000E+00  0.00000000E+00
  0.00000000E+00  0.00000000E+00  0.00000000E+00
  0.00000000E+00  0.00000000E+00  0.00000000E+00
  0.00000000E+00  0.00000000E+00  0.00000000E+00
  0.00000000E+00  0.00000000E+00  0.00000000E+00
  0.00000000E+00  0.00000000E+00  0.00000000E+00
  0.00000000E+00  0.00000000E+00  0.00000000E+00
  0.00000000E+00  0.00000000E+00  0.00000000E+00
  0.00000000E+00  0.00000000E+00  0.00000000E+00
  0.00000000E+00  0.00000000E+00  0.00000000E+00
  0.00000000E+00  0.00000000E+00  0.00000000E+00
  0.00000000E+00  0.00000000E+00  0.00000000E+00
  0.00000000E+00  0.00000000E+00  0.00000000E+00
  0.00000000E+00  0.00000000E+00  0.00000000E+00
  0.00000000E+00  0.00000000E+00  0.00000000E+00
  0.00000000E+00  0.00000000E+00  0.00000000E+00
  0.00000000E+00  0.00000000E+00  0.00000000E+00
