TiO2_rutile\(1\0\1)                     
   1.00000000000000     
    21.8364228969462317   -0.0016668472184812   -0.0388822131851670
    -0.0006955207492154    9.0646226551326237   -0.0005794961978529
    -0.0359042226997971   -0.0013393764110114   21.8688106775778408
   Ti   O 
    64   128
Selective dynamics
Direct
  0.0087299999999999  0.4023999870000026  0.0316199999999967   F   F   F
  0.1819163343441685  0.4090882013905795  0.1430903930018994   T   T   T
  0.1141632317539185  0.3881722734130073  0.2624786691986311   T   T   T
  0.0365347353024854  0.4276372044040628  0.3722718686213431   T   T   T
  0.1337299939999994  0.1524000020000003  0.0316199999999967   F   F   F
  0.0569282083142414  0.1456463849551095  0.1430943478456691   T   T   T
  0.2391420001088395  0.1665246390889840  0.2624805203179710   T   T   T
  0.1615111121621018  0.1272359449609431  0.3722458401249398   T   T   T
  0.2587299939999994  0.4023999870000026  0.0316199999999967   F   F   F
  0.4319136871054580  0.4090882023342071  0.1430933295273538   T   T   T
  0.3641645557678888  0.3881735006345505  0.2624741949047431   T   T   T
  0.2865353393702658  0.4276379783121088  0.3722719259948264   T   T   T
  0.3837299939999994  0.1524000020000003  0.0316199999999967   F   F   F
  0.3069370200845536  0.1456454158728812  0.1430911177290251   T   T   T
  0.4891401105209270  0.1665264316484279  0.2624785679850895   T   T   T
  0.4115105692465511  0.1272346694254663  0.3722516850690268   T   T   T
  0.0087299999999999  0.9024000169999979  0.0316199999999967   F   F   F
  0.1819163343441685  0.9090882313905747  0.1430903930018994   T   T   T
  0.1141632317539185  0.8881723034130021  0.2624786691986311   T   T   T
  0.0365347353024854  0.9276372344040583  0.3722718686213431   T   T   T
  0.1337299939999994  0.6524000169999979  0.0316199999999967   F   F   F
  0.0569282083142414  0.6456463999551072  0.1430943478456691   T   T   T
  0.2391420001088395  0.6665246540889815  0.2624805203179710   T   T   T
  0.1615111121621018  0.6272359599609414  0.3722458401249398   T   T   T
  0.2587299939999994  0.9024000169999979  0.0316199999999967   F   F   F
  0.4319136871054580  0.9090882323342028  0.1430933295273538   T   T   T
  0.3641645557678888  0.8881735306345461  0.2624741949047431   T   T   T
  0.2865353393702658  0.9276380083121041  0.3722719259948264   T   T   T
  0.3837299939999994  0.6524000169999979  0.0316199999999967   F   F   F
  0.3069370200845536  0.6456454308728790  0.1430911177290251   T   T   T
  0.4891401105209270  0.6665264466484258  0.2624785679850895   T   T   T
  0.4115105692465511  0.6272346844254643  0.3722516850690268   T   T   T
  0.5087299939999994  0.4023999870000026  0.0316199999999967   F   F   F
  0.6819239947911941  0.4090867641119097  0.1430870988208671   T   T   T
  0.6141653156799165  0.3881748202201267  0.2624839018672830   T   T   T
  0.5365357648902448  0.4276331494565414  0.3722694199412214   T   T   T
  0.6337299939999994  0.1524000020000003  0.0316199999999967   F   F   F
  0.5569308846025808  0.1456483847716439  0.1430915278128461   T   T   T
  0.7391399688287876  0.1665215946805176  0.2624793584772748   T   T   T
  0.6615097196218388  0.1272363358832074  0.3722410950129851   T   T   T
  0.7587299939999994  0.4023999870000026  0.0316199999999967   F   F   F
  0.9319173233030370  0.4090900258825180  0.1430919178000166   T   T   T
  0.8641643319845284  0.3881703538838001  0.2624760751622655   T   T   T
  0.7865369186659986  0.4276379222380664  0.3722718730348575   T   T   T
  0.8837299939999994  0.1524000020000003  0.0316199999999967   F   F   F
  0.8069320803612882  0.1456473225066883  0.1430899491056328   T   T   T
  0.9891431370133794  0.1665264061640078  0.2624747537044156   T   T   T
  0.9115114889423230  0.1272315362886100  0.3722530929595462   T   T   T
  0.5087299939999994  0.9024000169999979  0.0316199999999967   F   F   F
  0.6819239947911941  0.9090867941119051  0.1430870988208671   T   T   T
  0.6141653156799165  0.8881748502201217  0.2624839018672830   T   T   T
  0.5365357648902448  0.9276331794565366  0.3722694199412213   T   T   T
  0.6337299939999994  0.6524000169999979  0.0316199999999967   F   F   F
  0.5569308846025808  0.6456483997716419  0.1430915278128461   T   T   T
  0.7391399688287876  0.6665216096805149  0.2624793584772748   T   T   T
  0.6615097196218388  0.6272363508832048  0.3722410950129851   T   T   T
  0.7587299939999994  0.9024000169999979  0.0316199999999967   F   F   F
  0.9319173233030370  0.9090900558825133  0.1430919178000166   T   T   T
  0.8641643319845284  0.8881703838837951  0.2624760751622655   T   T   T
  0.7865369186659985  0.9276379522380618  0.3722718730348575   T   T   T
  0.8837299939999994  0.6524000169999979  0.0316199999999967   F   F   F
  0.8069320803612882  0.6456473375066859  0.1430899491056328   T   T   T
  0.9891431370133794  0.6665264211640053  0.2624747537044156   T   T   T
  0.9115114889423230  0.6272315512886079  0.3722530929595462   T   T   T
  0.0625900029999968  0.0548000000000002  0.0632399989999968   F   F   F
  0.2381264631980292  0.0556147510749316  0.1802373554255300   T   T   T
  0.1669957562732533  0.0503825066930968  0.2945272564782819   T   T   T
  0.0958867247962505  0.0449666805576383  0.4104746617282793   T   T   T
  0.2048699999999997  0.2500000000000000  0.0000000000000000   F   F   F
  0.1335238936078377  0.2446254362586169  0.1102012415761441   T   T   T
  0.0579578689361485  0.2519635386811124  0.2240700175860716   T   T   T
  0.2361930697285029  0.2532076994029488  0.3413032378733301   T   T   T
  0.0798699999999997  0.3048000040000005  0.0000000000000000   F   F   F
  0.0085201887509997  0.3101763248594277  0.1101860462450587   T   T   T
  0.1829733551739776  0.3028121729361159  0.2240772329436098   T   T   T
  0.1111628358658544  0.3015723581608625  0.3412960488274610   T   T   T
  0.1875800039999973  0.0000000000000000  0.0632399989999968   F   F   F
  0.1131238432154436 -0.0008665202025173  0.1802245579019633   T   T   T
  0.0420032576750912  0.0043686993324953  0.2945326068413758   T   T   T
  0.2209369601571320  0.0096674971573199  0.4104932432925428   T   T   T
  0.3125799889999996  0.0548000000000002  0.0632399989999968   F   F   F
  0.4881348340881171  0.0556276649899230  0.1802364562196296   T   T   T
  0.4169962941938911  0.0503782057971784  0.2945229038082303   T   T   T
  0.3458853256985783  0.0449630005781638  0.4104726326312220   T   T   T
  0.4548699859999985  0.2500000000000000  0.0000000000000000   F   F   F
  0.3835217618633479  0.2446153047041138  0.1101974739977384   T   T   T
  0.3079585357345055  0.2519649324663764  0.2240699782137472   T   T   T
  0.4861918300260306  0.2532058864958012  0.3413020301308636   T   T   T
  0.3298699859999985  0.3048000040000005  0.0000000000000000   F   F   F
  0.2585162149118695  0.3101822261500496  0.1101876063135907   T   T   T
  0.4329740577648375  0.3028054871701568  0.2240809089710466   T   T   T
  0.3611624700955040  0.3015700067864991  0.3412965141077476   T   T   T
  0.4375799889999996  0.0000000000000000  0.0632399989999968   F   F   F
  0.3631205086528737 -0.0008635136842187  0.1802234290153852   T   T   T
  0.2920039103712684  0.0043678287274754  0.2945333111485757   T   T   T
  0.4709374031581851  0.0096673693374528  0.4104926040947135   T   T   T
  0.0625900029999968  0.5547999739999980  0.0632399989999968   F   F   F
  0.2381264631980292  0.5556147250749298  0.1802373554255300   T   T   T
  0.1669957562732533  0.5503824806930947  0.2945272564782819   T   T   T
  0.0958867247962505  0.5449666545576359  0.4104746617282793   T   T   T
  0.2048699999999997  0.7500000000000000  0.0000000000000000   F   F   F
  0.1335238936078377  0.7446254362586170  0.1102012415761441   T   T   T
  0.0579578689361485  0.7519635386811124  0.2240700175860716   T   T   T
  0.2361930697285029  0.7532076994029491  0.3413032378733301   T   T   T
  0.0798699999999997  0.8047999739999980  0.0000000000000000   F   F   F
  0.0085201887509997  0.8101762948594244  0.1101860462450587   T   T   T
  0.1829733551739776  0.8028121429361130  0.2240772329436098   T   T   T
  0.1111628358658544  0.8015723281608603  0.3412960488274610   T   T   T
  0.1875800039999973  0.5000000000000000  0.0632399989999968   F   F   F
  0.1131238432154436  0.4991334797974826  0.1802245579019633   T   T   T
  0.0420032576750912  0.5043686993324955  0.2945326068413758   T   T   T
  0.2209369601571320  0.5096674971573201  0.4104932432925428   T   T   T
  0.3125799889999996  0.5547999739999980  0.0632399989999968   F   F   F
  0.4881348340881171  0.5556276389899207  0.1802364562196296   T   T   T
  0.4169962941938911  0.5503781797971765  0.2945229038082303   T   T   T
  0.3458853256985783  0.5449629745781615  0.4104726326312220   T   T   T
  0.4548699859999985  0.7500000000000000  0.0000000000000000   F   F   F
  0.3835217618633479  0.7446153047041137  0.1101974739977384   T   T   T
  0.3079585357345055  0.7519649324663764  0.2240699782137472   T   T   T
  0.4861918300260306  0.7532058864958014  0.3413020301308636   T   T   T
  0.3298699859999985  0.8047999739999980  0.0000000000000000   F   F   F
  0.2585162149118695  0.8101821961500469  0.1101876063135907   T   T   T
  0.4329740577648375  0.8028054571701544  0.2240809089710466   T   T   T
  0.3611624700955040  0.8015699767864967  0.3412965141077476   T   T   T
  0.4375799889999996  0.5000000000000000  0.0632399989999968   F   F   F
  0.3631205086528737  0.4991364863157812  0.1802234290153852   T   T   T
  0.2920039103712684  0.5043678287274752  0.2945333111485757   T   T   T
  0.4709374031581851  0.5096673693374529  0.4104926040947135   T   T   T
  0.5625900029999968  0.0548000000000002  0.0632399989999968   F   F   F
  0.7381286522998308  0.0556186803367339  0.1802380944195418   T   T   T
  0.6669961378034316  0.0503848406959382  0.2945305573120230   T   T   T
  0.5958869534147749  0.0449649358897269  0.4104754385895887   T   T   T
  0.7048699859999985  0.2500000000000000  0.0000000000000000   F   F   F
  0.6335206029059968  0.2446187756201219  0.1102015103156365   T   T   T
  0.5579560697019493  0.2519571971868209  0.2240671151990589   T   T   T
  0.7361922440678952  0.2532098137033005  0.3413042919789303   T   T   T
  0.5798699859999985  0.3048000040000005  0.0000000000000000   F   F   F
  0.5085216367788655  0.3101718190644127  0.1101877479105301   T   T   T
  0.6829737257693252  0.3028085780088491  0.2240782652228054   T   T   T
  0.6111623012858023  0.3015706602623193  0.3412947938894579   T   T   T
  0.6875799889999996  0.0000000000000000  0.0632399989999968   F   F   F
  0.6131180569494852 -0.0008580858046177  0.1802255761029452   T   T   T
  0.5420024548238177  0.0043716020467628  0.2945322939159250   T   T   T
  0.7209371085069380  0.0096695877006781  0.4104954661933075   T   T   T
  0.8125799889999996  0.0548000000000002  0.0632399989999968   F   F   F
  0.9881324359133825  0.0556238078879948  0.1802362443880713   T   T   T
  0.9169954845084782  0.0503772075241329  0.2945238517100929   T   T   T
  0.8458856096341211  0.0449628819218170  0.4104733646218873   T   T   T
  0.9548699859999985  0.2500000000000000  0.0000000000000000   F   F   F
  0.8835222232816679  0.2446169247455169  0.1101984984259543   T   T   T
  0.8079595641849320  0.2519681740873800  0.2240711142418896   T   T   T
  0.9861924635845274  0.2532062652666188  0.3413039074533190   T   T   T
  0.8298699859999985  0.3048000040000005  0.0000000000000000   F   F   F
  0.7585172978676670  0.3101797469824317  0.1101880343991841   T   T   T
  0.9329720439799497  0.3028086396565878  0.2240813177021074   T   T   T
  0.8611623423081556  0.3015716847365674  0.3412959271730517   T   T   T
  0.9375799889999996  0.0000000000000000  0.0632399989999968   F   F   F
  0.8631207689721592 -0.0008651164316744  0.1802257591328560   T   T   T
  0.7920043833093652  0.0043683825129844  0.2945340337180519   T   T   T
  0.9709373023480438  0.0096679744384032  0.4104922089965289   T   T   T
  0.5625900029999968  0.5547999739999980  0.0632399989999968   F   F   F
  0.7381286522998308  0.5556186543367314  0.1802380944195418   T   T   T
  0.6669961378034316  0.5503848146959358  0.2945305573120230   T   T   T
  0.5958869534147749  0.5449649098897252  0.4104754385895887   T   T   T
  0.7048699859999985  0.7500000000000000  0.0000000000000000   F   F   F
  0.6335206029059968  0.7446187756201219  0.1102015103156365   T   T   T
  0.5579560697019493  0.7519571971868207  0.2240671151990589   T   T   T
  0.7361922440678952  0.7532098137033005  0.3413042919789303   T   T   T
  0.5798699859999985  0.8047999739999980  0.0000000000000000   F   F   F
  0.5085216367788655  0.8101717890644103  0.1101877479105301   T   T   T
  0.6829737257693252  0.8028085480088468  0.2240782652228054   T   T   T
  0.6111623012858023  0.8015706302623167  0.3412947938894579   T   T   T
  0.6875799889999996  0.5000000000000000  0.0632399989999968   F   F   F
  0.6131180569494852  0.4991419141953821  0.1802255761029452   T   T   T
  0.5420024548238177  0.5043716020467627  0.2945322939159250   T   T   T
  0.7209371085069380  0.5096695877006782  0.4104954661933075   T   T   T
  0.8125799889999996  0.5547999739999980  0.0632399989999968   F   F   F
  0.9881324359133825  0.5556237818879926  0.1802362443880713   T   T   T
  0.9169954845084782  0.5503771815241310  0.2945238517100929   T   T   T
  0.8458856096341211  0.5449628559218151  0.4104733646218873   T   T   T
  0.9548699859999985  0.7500000000000000  0.0000000000000000   F   F   F
  0.8835222232816679  0.7446169247455167  0.1101984984259543   T   T   T
  0.8079595641849320  0.7519681740873801  0.2240711142418896   T   T   T
  0.9861924635845274  0.7532062652666190  0.3413039074533190   T   T   T
  0.8298699859999985  0.8047999739999980  0.0000000000000000   F   F   F
  0.7585172978676670  0.8101797169824292  0.1101880343991841   T   T   T
  0.9329720439799497  0.8028086096565850  0.2240813177021074   T   T   T
  0.8611623423081556  0.8015716547365646  0.3412959271730517   T   T   T
  0.9375799889999996  0.5000000000000000  0.0632399989999968   F   F   F
  0.8631207689721592  0.4991348835683253  0.1802257591328560   T   T   T
  0.7920043833093652  0.5043683825129843  0.2945340337180519   T   T   T
  0.9709373023480438  0.5096679744384032  0.4104922089965289   T   T   T
 
  0.00000000E+00  0.00000000E+00  0.00000000E+00
  0.00000000E+00  0.00000000E+00  0.00000000E+00
  0.00000000E+00  0.00000000E+00  0.00000000E+00
  0.00000000E+00  0.00000000E+00  0.00000000E+00
  0.00000000E+00  0.00000000E+00  0.00000000E+00
  0.00000000E+00  0.00000000E+00  0.00000000E+00
  0.00000000E+00  0.00000000E+00  0.00000000E+00
  0.00000000E+00  0.00000000E+00  0.00000000E+00
  0.00000000E+00  0.00000000E+00  0.00000000E+00
  0.00000000E+00  0.00000000E+00  0.00000000E+00
  0.00000000E+00  0.00000000E+00  0.00000000E+00
  0.00000000E+00  0.00000000E+00  0.00000000E+00
  0.00000000E+00  0.00000000E+00  0.00000000E+00
  0.00000000E+00  0.00000000E+00  0.00000000E+00
  0.00000000E+00  0.00000000E+00  0.00000000E+00
  0.00000000E+00  0.00000000E+00  0.00000000E+00
  0.00000000E+00  0.00000000E+00  0.00000000E+00
  0.00000000E+00  0.00000000E+00  0.00000000E+00
  0.00000000E+00  0.00000000E+00  0.00000000E+00
  0.00000000E+00  0.00000000E+00  0.00000000E+00
  0.00000000E+00  0.00000000E+00  0.00000000E+00
  0.00000000E+00  0.00000000E+00  0.00000000E+00
  0.00000000E+00  0.00000000E+00  0.00000000E+00
  0.00000000E+00  0.00000000E+00  0.00000000E+00
  0.00000000E+00  0.00000000E+00  0.00000000E+00
  0.00000000E+00  0.00000000E+00  0.00000000E+00
  0.00000000E+00  0.00000000E+00  0.00000000E+00
  0.00000000E+00  0.00000000E+00  0.00000000E+00
  0.00000000E+00  0.00000000E+00  0.00000000E+00
  0.00000000E+00  0.00000000E+00  0.00000000E+00
  0.00000000E+00  0.00000000E+00  0.00000000E+00
  0.00000000E+00  0.00000000E+00  0.00000000E+00
  0.00000000E+00  0.00000000E+00  0.00000000E+00
  0.00000000E+00  0.00000000E+00  0.00000000E+00
  0.00000000E+00  0.00000000E+00  0.00000000E+00
  0.00000000E+00  0.00000000E+00  0.00000000E+00
  0.00000000E+00  0.00000000E+00  0.00000000E+00
  0.00000000E+00  0.00000000E+00  0.00000000E+00
  0.00000000E+00  0.00000000E+00  0.00000000E+00
  0.00000000E+00  0.00000000E+00  0.00000000E+00
  0.00000000E+00  0.00000000E+00  0.00000000E+00
  0.00000000E+00  0.00000000E+00  0.00000000E+00
  0.00000000E+00  0.00000000E+00  0.00000000E+00
  0.00000000E+00  0.00000000E+00  0.00000000E+00
  0.00000000E+00  0.00000000E+00  0.00000000E+00
  0.00000000E+00  0.00000000E+00  0.00000000E+00
  0.00000000E+00  0.00000000E+00  0.00000000E+00
  0.00000000E+00  0.00000000E+00  0.00000000E+00
  0.00000000E+00  0.00000000E+00  0.00000000E+00
  0.00000000E+00  0.00000000E+00  0.00000000E+00
  0.00000000E+00  0.00000000E+00  0.00000000E+00
  0.00000000E+00  0.00000000E+00  0.00000000E+00
  0.00000000E+00  0.00000000E+00  0.00000000E+00
  0.00000000E+00  0.00000000E+00  0.00000000E+00
  0.00000000E+00  0.00000000E+00  0.00000000E+00
  0.00000000E+00  0.00000000E+00  0.00000000E+00
  0.00000000E+00  0.00000000E+00  0.00000000E+00
  0.00000000E+00  0.00000000E+00  0.00000000E+00
  0.00000000E+00  0.00000000E+00  0.00000000E+00
  0.00000000E+00  0.00000000E+00  0.00000000E+00
  0.00000000E+00  0.00000000E+00  0.00000000E+00
  0.00000000E+00  0.00000000E+00  0.00000000E+00
  0.00000000E+00  0.00000000E+00  0.00000000E+00
  0.00000000E+00  0.00000000E+00  0.00000000E+00
  0.00000000E+00  0.00000000E+00  0.00000000E+00
  0.00000000E+00  0.00000000E+00  0.00000000E+00
  0.00000000E+00  0.00000000E+00  0.00000000E+00
  0.00000000E+00  0.00000000E+00  0.00000000E+00
  0.00000000E+00  0.00000000E+00  0.00000000E+00
  0.00000000E+00  0.00000000E+00  0.00000000E+00
  0.00000000E+00  0.00000000E+00  0.00000000E+00
  0.00000000E+00  0.00000000E+00  0.00000000E+00
  0.00000000E+00  0.00000000E+00  0.00000000E+00
  0.00000000E+00  0.00000000E+00  0.00000000E+00
  0.00000000E+00  0.00000000E+00  0.00000000E+00
  0.00000000E+00  0.00000000E+00  0.00000000E+00
  0.00000000E+00  0.00000000E+00  0.00000000E+00
  0.00000000E+00  0.00000000E+00  0.00000000E+00
  0.00000000E+00  0.00000000E+00  0.00000000E+00
  0.00000000E+00  0.00000000E+00  0.00000000E+00
  0.00000000E+00  0.00000000E+00  0.00000000E+00
  0.00000000E+00  0.00000000E+00  0.00000000E+00
  0.00000000E+00  0.00000000E+00  0.00000000E+00
  0.00000000E+00  0.00000000E+00  0.00000000E+00
  0.00000000E+00  0.00000000E+00  0.00000000E+00
  0.00000000E+00  0.00000000E+00  0.00000000E+00
  0.00000000E+00  0.00000000E+00  0.00000000E+00
  0.00000000E+00  0.00000000E+00  0.00000000E+00
  0.00000000E+00  0.00000000E+00  0.00000000E+00
  0.00000000E+00  0.00000000E+00  0.00000000E+00
  0.00000000E+00  0.00000000E+00  0.00000000E+00
  0.00000000E+00  0.00000000E+00  0.00000000E+00
  0.00000000E+00  0.00000000E+00  0.00000000E+00
  0.00000000E+00  0.00000000E+00  0.00000000E+00
  0.00000000E+00  0.00000000E+00  0.00000000E+00
  0.00000000E+00  0.00000000E+00  0.00000000E+00
  0.00000000E+00  0.00000000E+00  0.00000000E+00
  0.00000000E+00  0.00000000E+00  0.00000000E+00
  0.00000000E+00  0.00000000E+00  0.00000000E+00
  0.00000000E+00  0.00000000E+00  0.00000000E+00
  0.00000000E+00  0.00000000E+00  0.00000000E+00
  0.00000000E+00  0.00000000E+00  0.00000000E+00
  0.00000000E+00  0.00000000E+00  0.00000000E+00
  0.00000000E+00  0.00000000E+00  0.00000000E+00
  0.00000000E+00  0.00000000E+00  0.00000000E+00
  0.00000000E+00  0.00000000E+00  0.00000000E+00
  0.00000000E+00  0.00000000E+00  0.00000000E+00
  0.00000000E+00  0.00000000E+00  0.00000000E+00
  0.00000000E+00  0.00000000E+00  0.00000000E+00
  0.00000000E+00  0.00000000E+00  0.00000000E+00
  0.00000000E+00  0.00000000E+00  0.00000000E+00
  0.00000000E+00  0.00000000E+00  0.00000000E+00
  0.00000000E+00  0.00000000E+00  0.00000000E+00
  0.00000000E+00  0.00000000E+00  0.00000000E+00
  0.00000000E+00  0.00000000E+00  0.00000000E+00
  0.00000000E+00  0.00000000E+00  0.00000000E+00
  0.00000000E+00  0.00000000E+00  0.00000000E+00
  0.00000000E+00  0.00000000E+00  0.00000000E+00
  0.00000000E+00  0.00000000E+00  0.00000000E+00
  0.00000000E+00  0.00000000E+00  0.00000000E+00
  0.00000000E+00  0.00000000E+00  0.00000000E+00
  0.00000000E+00  0.00000000E+00  0.00000000E+00
  0.00000000E+00  0.00000000E+00  0.00000000E+00
  0.00000000E+00  0.00000000E+00  0.00000000E+00
  0.00000000E+00  0.00000000E+00  0.00000000E+00
  0.00000000E+00  0.00000000E+00  0.00000000E+00
  0.00000000E+00  0.00000000E+00  0.00000000E+00
  0.00000000E+00  0.00000000E+00  0.00000000E+00
  0.00000000E+00  0.00000000E+00  0.00000000E+00
  0.00000000E+00  0.00000000E+00  0.00000000E+00
  0.00000000E+00  0.00000000E+00  0.00000000E+00
  0.00000000E+00  0.00000000E+00  0.00000000E+00
  0.00000000E+00  0.00000000E+00  0.00000000E+00
  0.00000000E+00  0.00000000E+00  0.00000000E+00
  0.00000000E+00  0.00000000E+00  0.00000000E+00
  0.00000000E+00  0.00000000E+00  0.00000000E+00
  0.00000000E+00  0.00000000E+00  0.00000000E+00
  0.00000000E+00  0.00000000E+00  0.00000000E+00
  0.00000000E+00  0.00000000E+00  0.00000000E+00
  0.00000000E+00  0.00000000E+00  0.00000000E+00
  0.00000000E+00  0.00000000E+00  0.00000000E+00
  0.00000000E+00  0.00000000E+00  0.00000000E+00
  0.00000000E+00  0.00000000E+00  0.00000000E+00
  0.00000000E+00  0.00000000E+00  0.00000000E+00
  0.00000000E+00  0.00000000E+00  0.00000000E+00
  0.00000000E+00  0.00000000E+00  0.00000000E+00
  0.00000000E+00  0.00000000E+00  0.00000000E+00
  0.00000000E+00  0.00000000E+00  0.00000000E+00
  0.00000000E+00  0.00000000E+00  0.00000000E+00
  0.00000000E+00  0.00000000E+00  0.00000000E+00
  0.00000000E+00  0.00000000E+00  0.00000000E+00
  0.00000000E+00  0.00000000E+00  0.00000000E+00
  0.00000000E+00  0.00000000E+00  0.00000000E+00
  0.00000000E+00  0.00000000E+00  0.00000000E+00
  0.00000000E+00  0.00000000E+00  0.00000000E+00
  0.00000000E+00  0.00000000E+00  0.00000000E+00
  0.00000000E+00  0.00000000E+00  0.00000000E+00
  0.00000000E+00  0.00000000E+00  0.00000000E+00
  0.00000000E+00  0.00000000E+00  0.00000000E+00
  0.00000000E+00  0.00000000E+00  0.00000000E+00
  0.00000000E+00  0.00000000E+00  0.00000000E+00
  0.00000000E+00  0.00000000E+00  0.00000000E+00
  0.00000000E+00  0.00000000E+00  0.00000000E+00
  0.00000000E+00  0.00000000E+00  0.00000000E+00
  0.00000000E+00  0.00000000E+00  0.00000000E+00
  0.00000000E+00  0.00000000E+00  0.00000000E+00
  0.00000000E+00  0.00000000E+00  0.00000000E+00
  0.00000000E+00  0.00000000E+00  0.00000000E+00
  0.00000000E+00  0.00000000E+00  0.00000000E+00
  0.00000000E+00  0.00000000E+00  0.00000000E+00
  0.00000000E+00  0.00000000E+00  0.00000000E+00
  0.00000000E+00  0.00000000E+00  0.00000000E+00
  0.00000000E+00  0.00000000E+00  0.00000000E+00
  0.00000000E+00  0.00000000E+00  0.00000000E+00
  0.00000000E+00  0.00000000E+00  0.00000000E+00
  0.00000000E+00  0.00000000E+00  0.00000000E+00
  0.00000000E+00  0.00000000E+00  0.00000000E+00
  0.00000000E+00  0.00000000E+00  0.00000000E+00
  0.00000000E+00  0.00000000E+00  0.00000000E+00
  0.00000000E+00  0.00000000E+00  0.00000000E+00
  0.00000000E+00  0.00000000E+00  0.00000000E+00
  0.00000000E+00  0.00000000E+00  0.00000000E+00
  0.00000000E+00  0.00000000E+00  0.00000000E+00
  0.00000000E+00  0.00000000E+00  0.00000000E+00
  0.00000000E+00  0.00000000E+00  0.00000000E+00
  0.00000000E+00  0.00000000E+00  0.00000000E+00
  0.00000000E+00  0.00000000E+00  0.00000000E+00
  0.00000000E+00  0.00000000E+00  0.00000000E+00
  0.00000000E+00  0.00000000E+00  0.00000000E+00
  0.00000000E+00  0.00000000E+00  0.00000000E+00
  0.00000000E+00  0.00000000E+00  0.00000000E+00
  0.00000000E+00  0.00000000E+00  0.00000000E+00
