TiO2_rutile\(1\0\1)
1.0
       21.8579998016         0.0000000000         0.0000000000
        0.0000000000         9.1879997253         0.0000000000
        0.0000000000         0.0000000000        23.9794006348
   Ti    O
   64  128
Selective Dynamics
Direct
     0.008730000         0.402399987         0.031620000 F F F
     0.185430005         0.402399987         0.135360003 T T T
     0.112120003         0.402399987         0.239099994 T T T
     0.038810000         0.402399987         0.342839986 T T T
     0.133729994         0.152400002         0.031620000 F F F
     0.060430001         0.152400002         0.135360003 T T T
     0.237120003         0.152400002         0.239099994 T T T
     0.163810000         0.152400002         0.342839986 T T T
     0.258729994         0.402399987         0.031620000 F F F
     0.435429990         0.402399987         0.135360003 T T T
     0.362120003         0.402399987         0.239099994 T T T
     0.288810015         0.402399987         0.342839986 T T T
     0.383729994         0.152400002         0.031620000 F F F
     0.310420007         0.152400002         0.135360003 T T T
     0.487120003         0.152400002         0.239099994 T T T
     0.413810015         0.152400002         0.342839986 T T T
     0.008730000         0.902400017         0.031620000 F F F
     0.185430005         0.902400017         0.135360003 T T T
     0.112120003         0.902400017         0.239099994 T T T
     0.038810000         0.902400017         0.342839986 T T T
     0.133729994         0.652400017         0.031620000 F F F
     0.060430001         0.652400017         0.135360003 T T T
     0.237120003         0.652400017         0.239099994 T T T
     0.163810000         0.652400017         0.342839986 T T T
     0.258729994         0.902400017         0.031620000 F F F
     0.435429990         0.902400017         0.135360003 T T T
     0.362120003         0.902400017         0.239099994 T T T
     0.288810015         0.902400017         0.342839986 T T T
     0.383729994         0.652400017         0.031620000 F F F
     0.310420007         0.652400017         0.135360003 T T T
     0.487120003         0.652400017         0.239099994 T T T
     0.413810015         0.652400017         0.342839986 T T T
     0.508729994         0.402399987         0.031620000 F F F
     0.685419977         0.402399987         0.135360003 T T T
     0.612119973         0.402399987         0.239099994 T T T
     0.538810015         0.402399987         0.342839986 T T T
     0.633729994         0.152400002         0.031620000 F F F
     0.560419977         0.152400002         0.135360003 T T T
     0.737119973         0.152400002         0.239099994 T T T
     0.663810015         0.152400002         0.342839986 T T T
     0.758729994         0.402399987         0.031620000 F F F
     0.935429990         0.402399987         0.135360003 T T T
     0.862119973         0.402399987         0.239099994 T T T
     0.788810015         0.402399987         0.342839986 T T T
     0.883729994         0.152400002         0.031620000 F F F
     0.810419977         0.152400002         0.135360003 T T T
     0.987119973         0.152400002         0.239099994 T T T
     0.913810015         0.152400002         0.342839986 T T T
     0.508729994         0.902400017         0.031620000 F F F
     0.685419977         0.902400017         0.135360003 T T T
     0.612119973         0.902400017         0.239099994 T T T
     0.538810015         0.902400017         0.342839986 T T T
     0.633729994         0.652400017         0.031620000 F F F
     0.560419977         0.652400017         0.135360003 T T T
     0.737119973         0.652400017         0.239099994 T T T
     0.663810015         0.652400017         0.342839986 T T T
     0.758729994         0.902400017         0.031620000 F F F
     0.935429990         0.902400017         0.135360003 T T T
     0.862119973         0.902400017         0.239099994 T T T
     0.788810015         0.902400017         0.342839986 T T T
     0.883729994         0.652400017         0.031620000 F F F
     0.810419977         0.652400017         0.135360003 T T T
     0.987119973         0.652400017         0.239099994 T T T
     0.913810015         0.652400017         0.342839986 T T T
     0.062590003         0.054800000         0.063239999 F F F
     0.239280000         0.054800000         0.166979998 T T T
     0.165979996         0.054800000         0.270720005 T T T
     0.092670001         0.054800000         0.374460012 T T T
     0.204870000         0.250000000         0.000000000 F F F
     0.131559998         0.250000000         0.103739999 T T T
     0.058260001         0.250000000         0.207479998 T T T
     0.234950006         0.250000000         0.311219990 T T T
     0.079870000         0.304800004         0.000000000 F F F
     0.006560000         0.304800004         0.103739999 T T T
     0.183259994         0.304800004         0.207479998 T T T
     0.109949999         0.304800004         0.311219990 T T T
     0.187580004         0.000000000         0.063239999 F F F
     0.114280000         0.000000000         0.166979998 T T T
     0.040970001         0.000000000         0.270720005 T T T
     0.217669994         0.000000000         0.374460012 T T T
     0.312579989         0.054800000         0.063239999 F F F
     0.489279985         0.054800000         0.166979998 T T T
     0.415969998         0.054800000         0.270720005 T T T
     0.342669994         0.054800000         0.374460012 T T T
     0.454869986         0.250000000         0.000000000 F F F
     0.381559998         0.250000000         0.103739999 T T T
     0.308259994         0.250000000         0.207479998 T T T
     0.484950006         0.250000000         0.311219990 T T T
     0.329869986         0.304800004         0.000000000 F F F
     0.256559998         0.304800004         0.103739999 T T T
     0.433259994         0.304800004         0.207479998 T T T
     0.359950006         0.304800004         0.311219990 T T T
     0.437579989         0.000000000         0.063239999 F F F
     0.364279985         0.000000000         0.166979998 T T T
     0.290980011         0.000000000         0.270720005 T T T
     0.467669994         0.000000000         0.374460012 T T T
     0.062590003         0.554799974         0.063239999 F F F
     0.239280000         0.554799974         0.166979998 T T T
     0.165979996         0.554799974         0.270720005 T T T
     0.092670001         0.554799974         0.374460012 T T T
     0.204870000         0.750000000         0.000000000 F F F
     0.131559998         0.750000000         0.103739999 T T T
     0.058260001         0.750000000         0.207479998 T T T
     0.234950006         0.750000000         0.311219990 T T T
     0.079870000         0.804799974         0.000000000 F F F
     0.006560000         0.804799974         0.103739999 T T T
     0.183259994         0.804799974         0.207479998 T T T
     0.109949999         0.804799974         0.311219990 T T T
     0.187580004         0.500000000         0.063239999 F F F
     0.114280000         0.500000000         0.166979998 T T T
     0.040970001         0.500000000         0.270720005 T T T
     0.217669994         0.500000000         0.374460012 T T T
     0.312579989         0.554799974         0.063239999 F F F
     0.489279985         0.554799974         0.166979998 T T T
     0.415969998         0.554799974         0.270720005 T T T
     0.342669994         0.554799974         0.374460012 T T T
     0.454869986         0.750000000         0.000000000 F F F
     0.381559998         0.750000000         0.103739999 T T T
     0.308259994         0.750000000         0.207479998 T T T
     0.484950006         0.750000000         0.311219990 T T T
     0.329869986         0.804799974         0.000000000 F F F
     0.256559998         0.804799974         0.103739999 T T T
     0.433259994         0.804799974         0.207479998 T T T
     0.359950006         0.804799974         0.311219990 T T T
     0.437579989         0.500000000         0.063239999 F F F
     0.364279985         0.500000000         0.166979998 T T T
     0.290980011         0.500000000         0.270720005 T T T
     0.467669994         0.500000000         0.374460012 T T T
     0.562590003         0.054800000         0.063239999 F F F
     0.739279985         0.054800000         0.166979998 T T T
     0.665970027         0.054800000         0.270720005 T T T
     0.592670023         0.054800000         0.374460012 T T T
     0.704869986         0.250000000         0.000000000 F F F
     0.631560028         0.250000000         0.103739999 T T T
     0.558260024         0.250000000         0.207479998 T T T
     0.734950006         0.250000000         0.311219990 T T T
     0.579869986         0.304800004         0.000000000 F F F
     0.506560028         0.304800004         0.103739999 T T T
     0.683260024         0.304800004         0.207479998 T T T
     0.609950006         0.304800004         0.311219990 T T T
     0.687579989         0.000000000         0.063239999 F F F
     0.614279985         0.000000000         0.166979998 T T T
     0.540970027         0.000000000         0.270720005 T T T
     0.717670023         0.000000000         0.374460012 T T T
     0.812579989         0.054800000         0.063239999 F F F
     0.989279985         0.054800000         0.166979998 T T T
     0.915970027         0.054800000         0.270720005 T T T
     0.842670023         0.054800000         0.374460012 T T T
     0.954869986         0.250000000         0.000000000 F F F
     0.881560028         0.250000000         0.103739999 T T T
     0.808260024         0.250000000         0.207479998 T T T
     0.984950006         0.250000000         0.311219990 T T T
     0.829869986         0.304800004         0.000000000 F F F
     0.756560028         0.304800004         0.103739999 T T T
     0.933260024         0.304800004         0.207479998 T T T
     0.859950006         0.304800004         0.311219990 T T T
     0.937579989         0.000000000         0.063239999 F F F
     0.864279985         0.000000000         0.166979998 T T T
     0.790970027         0.000000000         0.270720005 T T T
     0.967670023         0.000000000         0.374460012 T T T
     0.562590003         0.554799974         0.063239999 F F F
     0.739279985         0.554799974         0.166979998 T T T
     0.665970027         0.554799974         0.270720005 T T T
     0.592670023         0.554799974         0.374460012 T T T
     0.704869986         0.750000000         0.000000000 F F F
     0.631560028         0.750000000         0.103739999 T T T
     0.558260024         0.750000000         0.207479998 T T T
     0.734950006         0.750000000         0.311219990 T T T
     0.579869986         0.804799974         0.000000000 F F F
     0.506560028         0.804799974         0.103739999 T T T
     0.683260024         0.804799974         0.207479998 T T T
     0.609950006         0.804799974         0.311219990 T T T
     0.687579989         0.500000000         0.063239999 F F F
     0.614279985         0.500000000         0.166979998 T T T
     0.540970027         0.500000000         0.270720005 T T T
     0.717670023         0.500000000         0.374460012 T T T
     0.812579989         0.554799974         0.063239999 F F F
     0.989279985         0.554799974         0.166979998 T T T
     0.915970027         0.554799974         0.270720005 T T T
     0.842670023         0.554799974         0.374460012 T T T
     0.954869986         0.750000000         0.000000000 F F F
     0.881560028         0.750000000         0.103739999 T T T
     0.808260024         0.750000000         0.207479998 T T T
     0.984950006         0.750000000         0.311219990 T T T
     0.829869986         0.804799974         0.000000000 F F F
     0.756560028         0.804799974         0.103739999 T T T
     0.933260024         0.804799974         0.207479998 T T T
     0.859950006         0.804799974         0.311219990 T T T
     0.937579989         0.500000000         0.063239999 F F F
     0.864279985         0.500000000         0.166979998 T T T
     0.790970027         0.500000000         0.270720005 T T T
     0.967670023         0.500000000         0.374460012 T T T
