TiO2_rutile\(0\1\0)                     
   1.00000000000000     
     5.8801108979605976   -0.0009832542145012    0.0033790850977735
    -0.0018148433046483    9.1351366481399072    0.0033000633049319
     0.0268084049928869    0.0247249584475663   34.9446039516064673
   Ti   O 
    32    67
Selective dynamics
Direct
  0.1078799960000012  0.2397200019999985  0.0843300000000013   F   F   F
  0.1054846134743136  0.2456835433549018  0.2197002847905046   T   T   T
  0.1084538373343380  0.2400062717645127  0.3546939494095873   T   T   T
  0.1038277007384336  0.2322980396034509  0.4941056184425059   T   T   T
  0.3578799960000012  0.4897199870000009  0.0236799999999988   F   F   F
  0.3571537761589763  0.4935752473037426  0.1520960506724414   T   T   T
  0.3535486513323525  0.4961437210868730  0.2876538153403881   T   T   T
  0.3542583987452671  0.4934547723415810  0.4225597204268077   T   T   T
  0.6078799960000012  0.2397200019999985  0.0843300000000013   F   F   F
  0.6057771903550091  0.2458235267234502  0.2197280913856229   T   T   T
  0.6009303077771110  0.2400077329298733  0.3547267326686869   T   T   T
  0.6040671495144978  0.2323429668765781  0.4941116622698457   T   T   T
  0.8578799960000012  0.4897199870000009  0.0236799999999988   F   F   F
  0.8571695098855904  0.4931240777236487  0.1519084677066375   T   T   T
  0.8536271825794735  0.4919887210462229  0.2891733383020638   T   T   T
  0.8543031766341027  0.4926762623374457  0.4221745695168602   T   T   T
  0.1078799960000012  0.7397199870000009  0.0843300000000013   F   F   F
  0.1042391644591696  0.7423712597748359  0.2193148575188789   T   T   T
  0.1041840822787361  0.7472690740788464  0.3556449806692198   T   T   T
  0.1025130046663806  0.7283210419391942  0.4926695839921373   T   T   T
  0.3578799960000012  0.9897199870000009  0.0236799999999988   F   F   F
  0.3569942883406839  0.9929055889514389  0.1526869926194779   T   T   T
  0.3552135956247345  0.9925731944772723  0.2866803100754526   T   T   T
  0.3543888837648363  0.9835477065539395  0.4263241397949588   T   T   T
  0.6078799960000012  0.7397199870000009  0.0843300000000013   F   F   F
  0.6071082585743353  0.7423182655635454  0.2193188278456098   T   T   T
  0.6037463000671115  0.7471550665015143  0.3556249045109169   T   T   T
  0.6054658734636427  0.7282682242031390  0.4926618554569458   T   T   T
  0.8578799960000012  0.9897199870000009  0.0236799999999988   F   F   F
  0.8569412485089207  0.9940147498652355  0.1522065964984962   T   T   T
  0.8551577054043057  0.9947744315076086  0.2873930045855353   T   T   T
  0.8543613636325281  0.0004130417463583  0.4230526836191453   T   T   T
  0.1078799960000012  0.3921200039999988  0.0000000000000000   F   F   F
  0.1072880685771953  0.3945609699616332  0.1272051376818241   T   T   T
  0.1063120276566901  0.3952982394221590  0.2621482929317726   T   T   T
  0.1023128877389336  0.3944270512898506  0.3979056020602864   T   T   T
  0.1078799960000012  0.0873199999999983  0.0473599990000011   F   F   F
  0.1069029426482182  0.1015609218524479  0.1772134693399986   T   T   T
  0.1053965950352663  0.0978843172026937  0.3129085871163070   T   T   T
  0.1032121662248238  0.0964716394787812  0.4485781906194456   T   T   T
  0.3578799960000012  0.3373199999999983  0.0606499980000024   F   F   F
  0.3568097335702435  0.3504338474577011  0.1945349520042404   T   T   T
  0.3554030102008335  0.3487996412841938  0.3298483914988452   T   T   T
  0.3542129827798476  0.3355382568461052  0.4627197998858218   T   T   T
  0.3578799960000012  0.1421200039999988  0.1080100009999967   F   F   F
  0.3562313501433010  0.1447686513305487  0.2451889334477618   T   T   T
  0.3548036356189804  0.1460227589576111  0.3802923821916391   T   T   T
  0.3537132255024280  0.1177697550887429  0.5137193548604080   T   T   T
  0.6078799960000012  0.3921200039999988  0.0000000000000000   F   F   F
  0.6075222536127918  0.3945673747223754  0.1272044047667555   T   T   T
  0.6057605084917806  0.3952903725147406  0.2621512696743440   T   T   T
  0.6070394857182768  0.3944048839219493  0.3979048138675865   T   T   T
  0.6078799960000012  0.0873199999999983  0.0473599990000011   F   F   F
  0.6072318854915977  0.1015569540865035  0.1772100050169379   T   T   T
  0.6058382663932633  0.0978881820097495  0.3129125339585620   T   T   T
  0.6054797936061439  0.0965007620928943  0.4485738281148304   T   T   T
  0.8578799960000012  0.3373199999999983  0.0606499980000024   F   F   F
  0.8568069734829585  0.3505410303889125  0.1945746584244094   T   T   T
  0.8554275984825865  0.3488508342687366  0.3297495741930512   T   T   T
  0.8541993558905867  0.3398196391809882  0.4637333744284031   T   T   T
  0.8578799960000012  0.1421200039999988  0.1080100009999967   F   F   F
  0.8562416497703862  0.1448122000108199  0.2451910457015603   T   T   T
  0.8548583265955310  0.1444961998042160  0.3803731720854898   T   T   T
  0.8536999045592063  0.1153503644730942  0.5122302589548661   T   T   T
  0.1078799960000012  0.8921200039999988  0.0000000000000000   F   F   F
  0.1072686139701758  0.8944685844863356  0.1272444548540945   T   T   T
  0.1059336382352380  0.8946722750426009  0.2622766371576897   T   T   T
  0.1054084225699543  0.8939954214739952  0.3975925393728287   T   T   T
  0.1078799960000012  0.5873200300000008  0.0473599990000011   F   F   F
  0.1072118427736764  0.6009893542291814  0.1769866800032044   T   T   T
  0.1057730808188493  0.5989860150475704  0.3132042734226377   T   T   T
  0.1094204252439924  0.5922354977182035  0.4502200425702192   T   T   T
  0.3578799960000012  0.8373200300000008  0.0606499980000024   F   F   F
  0.3568442570087751  0.8504019546240504  0.1945601207416217   T   T   T
  0.3553861051992205  0.8482017859991224  0.3300515896801066   T   T   T
  0.3542250236892043  0.8481590617663267  0.4661601713000373   T   T   T
  0.3578799960000012  0.6421200039999988  0.1080100009999967   F   F   F
  0.3562202500909760  0.6452978481671576  0.2450734369098780   T   T   T
  0.3549274212606369  0.6433326714255951  0.3811365842699033   T   T   T
  0.3537216143151951  0.6808397859084295  0.5216516875929811   T   T   T
  0.6078799960000012  0.8921200039999988  0.0000000000000000   F   F   F
  0.6075589873711891  0.8944649974823892  0.1272413378990590   T   T   T
  0.6059873604995204  0.8946842870701575  0.2622817620052822   T   T   T
  0.6040589873496509  0.8940074774892581  0.3975957996207194   T   T   T
  0.6078799960000012  0.5873200300000008  0.0473599990000011   F   F   F
  0.6068579417916441  0.6009879645607089  0.1769880534396306   T   T   T
  0.6055295030705791  0.5990007036309620  0.3132162649722628   T   T   T
  0.5992522828163716  0.5922190964862546  0.4502188963474467   T   T   T
  0.8578799960000012  0.8373200300000008  0.0606499980000024   F   F   F
  0.8567977741942076  0.8503276677297236  0.1945647016269098   T   T   T
  0.8554131731585779  0.8479581271323657  0.3300144140367041   T   T   T
  0.8541983650674306  0.8413683432096815  0.4628112461782287   T   T   T
  0.8578799960000012  0.6421200039999988  0.1080100009999967   F   F   F
  0.8562075602190444  0.6455854067616577  0.2448951534585288   T   T   T
  0.8549203339490343  0.6447740614206886  0.3815864917289375   T   T   T
  0.8537821076953641  0.6132219878650947  0.5116588104586566   T   T   T
  0.3537800539534442  0.3457817230663469  0.5236969578871785   T   T   T
  0.8538266371632082  0.8372528486221020  0.5242215758500239   T   T   T
  0.8537717088830735  0.3381351044177187  0.5255314678541638   T   T   T
 
  0.00000000E+00  0.00000000E+00  0.00000000E+00
  0.00000000E+00  0.00000000E+00  0.00000000E+00
  0.00000000E+00  0.00000000E+00  0.00000000E+00
  0.00000000E+00  0.00000000E+00  0.00000000E+00
  0.00000000E+00  0.00000000E+00  0.00000000E+00
  0.00000000E+00  0.00000000E+00  0.00000000E+00
  0.00000000E+00  0.00000000E+00  0.00000000E+00
  0.00000000E+00  0.00000000E+00  0.00000000E+00
  0.00000000E+00  0.00000000E+00  0.00000000E+00
  0.00000000E+00  0.00000000E+00  0.00000000E+00
  0.00000000E+00  0.00000000E+00  0.00000000E+00
  0.00000000E+00  0.00000000E+00  0.00000000E+00
  0.00000000E+00  0.00000000E+00  0.00000000E+00
  0.00000000E+00  0.00000000E+00  0.00000000E+00
  0.00000000E+00  0.00000000E+00  0.00000000E+00
  0.00000000E+00  0.00000000E+00  0.00000000E+00
  0.00000000E+00  0.00000000E+00  0.00000000E+00
  0.00000000E+00  0.00000000E+00  0.00000000E+00
  0.00000000E+00  0.00000000E+00  0.00000000E+00
  0.00000000E+00  0.00000000E+00  0.00000000E+00
  0.00000000E+00  0.00000000E+00  0.00000000E+00
  0.00000000E+00  0.00000000E+00  0.00000000E+00
  0.00000000E+00  0.00000000E+00  0.00000000E+00
  0.00000000E+00  0.00000000E+00  0.00000000E+00
  0.00000000E+00  0.00000000E+00  0.00000000E+00
  0.00000000E+00  0.00000000E+00  0.00000000E+00
  0.00000000E+00  0.00000000E+00  0.00000000E+00
  0.00000000E+00  0.00000000E+00  0.00000000E+00
  0.00000000E+00  0.00000000E+00  0.00000000E+00
  0.00000000E+00  0.00000000E+00  0.00000000E+00
  0.00000000E+00  0.00000000E+00  0.00000000E+00
  0.00000000E+00  0.00000000E+00  0.00000000E+00
  0.00000000E+00  0.00000000E+00  0.00000000E+00
  0.00000000E+00  0.00000000E+00  0.00000000E+00
  0.00000000E+00  0.00000000E+00  0.00000000E+00
  0.00000000E+00  0.00000000E+00  0.00000000E+00
  0.00000000E+00  0.00000000E+00  0.00000000E+00
  0.00000000E+00  0.00000000E+00  0.00000000E+00
  0.00000000E+00  0.00000000E+00  0.00000000E+00
  0.00000000E+00  0.00000000E+00  0.00000000E+00
  0.00000000E+00  0.00000000E+00  0.00000000E+00
  0.00000000E+00  0.00000000E+00  0.00000000E+00
  0.00000000E+00  0.00000000E+00  0.00000000E+00
  0.00000000E+00  0.00000000E+00  0.00000000E+00
  0.00000000E+00  0.00000000E+00  0.00000000E+00
  0.00000000E+00  0.00000000E+00  0.00000000E+00
  0.00000000E+00  0.00000000E+00  0.00000000E+00
  0.00000000E+00  0.00000000E+00  0.00000000E+00
  0.00000000E+00  0.00000000E+00  0.00000000E+00
  0.00000000E+00  0.00000000E+00  0.00000000E+00
  0.00000000E+00  0.00000000E+00  0.00000000E+00
  0.00000000E+00  0.00000000E+00  0.00000000E+00
  0.00000000E+00  0.00000000E+00  0.00000000E+00
  0.00000000E+00  0.00000000E+00  0.00000000E+00
  0.00000000E+00  0.00000000E+00  0.00000000E+00
  0.00000000E+00  0.00000000E+00  0.00000000E+00
  0.00000000E+00  0.00000000E+00  0.00000000E+00
  0.00000000E+00  0.00000000E+00  0.00000000E+00
  0.00000000E+00  0.00000000E+00  0.00000000E+00
  0.00000000E+00  0.00000000E+00  0.00000000E+00
  0.00000000E+00  0.00000000E+00  0.00000000E+00
  0.00000000E+00  0.00000000E+00  0.00000000E+00
  0.00000000E+00  0.00000000E+00  0.00000000E+00
  0.00000000E+00  0.00000000E+00  0.00000000E+00
  0.00000000E+00  0.00000000E+00  0.00000000E+00
  0.00000000E+00  0.00000000E+00  0.00000000E+00
  0.00000000E+00  0.00000000E+00  0.00000000E+00
  0.00000000E+00  0.00000000E+00  0.00000000E+00
  0.00000000E+00  0.00000000E+00  0.00000000E+00
  0.00000000E+00  0.00000000E+00  0.00000000E+00
  0.00000000E+00  0.00000000E+00  0.00000000E+00
  0.00000000E+00  0.00000000E+00  0.00000000E+00
  0.00000000E+00  0.00000000E+00  0.00000000E+00
  0.00000000E+00  0.00000000E+00  0.00000000E+00
  0.00000000E+00  0.00000000E+00  0.00000000E+00
  0.00000000E+00  0.00000000E+00  0.00000000E+00
  0.00000000E+00  0.00000000E+00  0.00000000E+00
  0.00000000E+00  0.00000000E+00  0.00000000E+00
  0.00000000E+00  0.00000000E+00  0.00000000E+00
  0.00000000E+00  0.00000000E+00  0.00000000E+00
  0.00000000E+00  0.00000000E+00  0.00000000E+00
  0.00000000E+00  0.00000000E+00  0.00000000E+00
  0.00000000E+00  0.00000000E+00  0.00000000E+00
  0.00000000E+00  0.00000000E+00  0.00000000E+00
  0.00000000E+00  0.00000000E+00  0.00000000E+00
  0.00000000E+00  0.00000000E+00  0.00000000E+00
  0.00000000E+00  0.00000000E+00  0.00000000E+00
  0.00000000E+00  0.00000000E+00  0.00000000E+00
  0.00000000E+00  0.00000000E+00  0.00000000E+00
  0.00000000E+00  0.00000000E+00  0.00000000E+00
  0.00000000E+00  0.00000000E+00  0.00000000E+00
  0.00000000E+00  0.00000000E+00  0.00000000E+00
  0.00000000E+00  0.00000000E+00  0.00000000E+00
  0.00000000E+00  0.00000000E+00  0.00000000E+00
  0.00000000E+00  0.00000000E+00  0.00000000E+00
  0.00000000E+00  0.00000000E+00  0.00000000E+00
  0.00000000E+00  0.00000000E+00  0.00000000E+00
  0.00000000E+00  0.00000000E+00  0.00000000E+00
  0.00000000E+00  0.00000000E+00  0.00000000E+00
