POSCAR                                  
   1.00000000000000     
     5.9011059961840928    0.0075467335631528    0.0066556624213362
    -0.0072816670805113    9.1581086780084231   -0.0144862605734878
     0.1147136505717987    0.1450005405358200   35.0621147516882559
   Ti   O 
    32    68
Selective dynamics
Direct
  0.1078799960000012  0.2397200019999985  0.0843300000000013   F   F   F
  0.1051517688235426  0.2416630205231619  0.2165368783640153   T   T   T
  0.0973544998516853  0.2392761159515364  0.3499217511761299   T   T   T
  0.0698438923165335  0.2260882791704969  0.4850468735346785   T   T   T
  0.3578799960000012  0.4897199870000009  0.0236799999999988   F   F   F
  0.3566930563609226  0.4918465067989559  0.1504949654145629   T   T   T
  0.3524100836034018  0.4896302759743347  0.2839256525464889   T   T   T
  0.3433429008402240  0.4888223785975923  0.4165511438352671   T   T   T
  0.6078799960000012  0.2397200019999985  0.0843300000000013   F   F   F
  0.6047150193070603  0.2417205646700968  0.2167024953515309   T   T   T
  0.6012908118955109  0.2385852920580530  0.3494268699079721   T   T   T
  0.5693849894321825  0.2270798884102994  0.4853932879683476   T   T   T
  0.8578799960000012  0.4897199870000009  0.0236799999999988   F   F   F
  0.8564241161600877  0.4919790277353229  0.1506325804709128   T   T   T
  0.8530377530690620  0.4912363400115377  0.2831059434038892   T   T   T
  0.8407813595973351  0.4891300237335641  0.4170341115185552   T   T   T
  0.1078799960000012  0.7397199870000009  0.0843300000000013   F   F   F
  0.1056319893340711  0.7412064020134255  0.2165263895967572   T   T   T
  0.0995135863307071  0.7398050652024241  0.3498727854858721   T   T   T
  0.0760704923341906  0.7270010742919434  0.4842660552118790   T   T   T
  0.3578799960000012  0.9897199870000009  0.0236799999999988   F   F   F
  0.3566401131341277  0.9920605237942786  0.1504995470976142   T   T   T
  0.3522010023187724  0.9910176492144821  0.2835604474566737   T   T   T
  0.3443255762694832  0.9916933344986713  0.4164374736904531   T   T   T
  0.6078799960000012  0.7397199870000009  0.0843300000000013   F   F   F
  0.6041286355913564  0.7414286336976645  0.2167244761775212   T   T   T
  0.6001872761227101  0.7398285278850020  0.3494929871483586   T   T   T
  0.5758852635229526  0.7299188565427590  0.4855304399192286   T   T   T
  0.8578799960000012  0.9897199870000009  0.0236799999999988   F   F   F
  0.8564394489591354  0.9916104976570835  0.1507366201166437   T   T   T
  0.8531300279919060  0.9903228894374545  0.2831076551546087   T   T   T
  0.8435131248187729  0.9849105284603973  0.4179596954624719   T   T   T
  0.1078799960000012  0.3921200039999988  0.0000000000000000   F   F   F
  0.1069725065191007  0.3941353071447548  0.1257279718216715   T   T   T
  0.1028805400499966  0.3937006525295432  0.2579623833251575   T   T   T
  0.0977386769375342  0.3915919787766404  0.3914438526828818   T   T   T
  0.1078799960000012  0.0873199999999983  0.0473599990000011   F   F   F
  0.1055194151053480  0.0976240039498001  0.1754478988942877   T   T   T
  0.1014821983862407  0.0940462791939368  0.3086304802840465   T   T   T
  0.0962116217682521  0.0937555583059043  0.4420884706298204   T   T   T
  0.3578799960000012  0.3373199999999983  0.0606499980000024   F   F   F
  0.3549058752449685  0.3464950101680379  0.1917041719182698   T   T   T
  0.3504723173392732  0.3442297733461284  0.3244429896196642   T   T   T
  0.3463812603652304  0.3448079415786862  0.4577118619257671   T   T   T
  0.3578799960000012  0.1421200039999988  0.1080100009999967   F   F   F
  0.3535939634424440  0.1435499383153831  0.2420908238828078   T   T   T
  0.3489863493852605  0.1422060183197597  0.3751703336377080   T   T   T
  0.3319720749421885  0.1388028565780331  0.5099903442457114   T   T   T
  0.6078799960000012  0.3921200039999988  0.0000000000000000   F   F   F
  0.6068439734753031  0.3941021554221902  0.1257275722204377   T   T   T
  0.6029681207022783  0.3937602344122345  0.2579461562727126   T   T   T
  0.5969460100992552  0.3913856311536333  0.3915062925666322   T   T   T
  0.6078799960000012  0.0873199999999983  0.0473599990000011   F   F   F
  0.6054188505847866  0.0976171206241855  0.1754461612614845   T   T   T
  0.6010085218832830  0.0941578207391826  0.3086184734561200   T   T   T
  0.5962616428846252  0.0938825038600993  0.4421562788953021   T   T   T
  0.8578799960000012  0.3373199999999983  0.0606499980000024   F   F   F
  0.8549691565273847  0.3464448379325210  0.1916852205841120   T   T   T
  0.8503224842696168  0.3441422930119112  0.3244729749536387   T   T   T
  0.8463943527352412  0.3455563137328156  0.4581020548723548   T   T   T
  0.8578799960000012  0.1421200039999988  0.1080100009999967   F   F   F
  0.8536126596816762  0.1436183994105605  0.2421341613262998   T   T   T
  0.8487625082554816  0.1423328220939610  0.3750292107021169   T   T   T
  0.8320333907400828  0.1409505933825717  0.5103964407409808   T   T   T
  0.1078799960000012  0.8921200039999988  0.0000000000000000   F   F   F
  0.1069927346082845  0.8941283620326446  0.1257258979381355   T   T   T
  0.1027860577637005  0.8935274902359337  0.2579895081507459   T   T   T
  0.0977193863758689  0.8917632321335802  0.3913967306240990   T   T   T
  0.1078799960000012  0.5873200300000008  0.0473599990000011   F   F   F
  0.1054186321769831  0.5975236257903215  0.1754230538166477   T   T   T
  0.1011038276244955  0.5944001855422663  0.3086671543258940   T   T   T
  0.0964155044631838  0.5923564857567235  0.4424423799229156   T   T   T
  0.3578799960000012  0.8373200300000008  0.0606499980000024   F   F   F
  0.3548844970673473  0.8465071928353017  0.1916908928853545   T   T   T
  0.3507007919358013  0.8439147061306578  0.3244976724559889   T   T   T
  0.3451317107463258  0.8466034541049351  0.4581203500466705   T   T   T
  0.3578799960000012  0.6421200039999988  0.1080100009999967   F   F   F
  0.3536008324416601  0.6437873801616244  0.2420652025801952   T   T   T
  0.3488012000876747  0.6421250841313282  0.3753190610119675   T   T   T
  0.3366915043459558  0.6383871394392083  0.5092209181239682   T   T   T
  0.6078799960000012  0.8921200039999988  0.0000000000000000   F   F   F
  0.6068111934457000  0.8940998221843532  0.1257280678673668   T   T   T
  0.6030476476981781  0.8936135663422793  0.2579655513145966   T   T   T
  0.5965590101031033  0.8910989024637874  0.3916318757922468   T   T   T
  0.6078799960000012  0.5873200300000008  0.0473599990000011   F   F   F
  0.6055317695134046  0.5975125909406992  0.1754213903021439   T   T   T
  0.6014236075377218  0.5943057742876477  0.3087178422945198   T   T   T
  0.5986739551677760  0.5934986572224041  0.4423085740375106   T   T   T
  0.8578799960000012  0.8373200300000008  0.0606499980000024   F   F   F
  0.8549824170122655  0.8465057216425379  0.1916808884477837   T   T   T
  0.8501082767007222  0.8441451904850902  0.3245741652114632   T   T   T
  0.8473472933592546  0.8480394180326156  0.4587482147874480   T   T   T
  0.8578799960000012  0.6421200039999988  0.1080100009999967   F   F   F
  0.8536104016515768  0.6435848633101440  0.2421022854167648   T   T   T
  0.8492756651844607  0.6421026100718306  0.3752740368939018   T   T   T
  0.8361033106758059  0.6566669207505073  0.5122327519123689   T   T   T
  0.2322231758876181  0.3655808889962969  0.5181119881375400   T   T   T
  0.2355796786611042  0.8646774137028977  0.5196041221697675   T   T   T
  0.6688004346871308  0.8747123761776063  0.5244986518805858   T   T   T
  0.7257687289490806  0.3695856640578068  0.5183746090967772   T   T   T
 
  0.00000000E+00  0.00000000E+00  0.00000000E+00
  0.00000000E+00  0.00000000E+00  0.00000000E+00
  0.00000000E+00  0.00000000E+00  0.00000000E+00
  0.00000000E+00  0.00000000E+00  0.00000000E+00
  0.00000000E+00  0.00000000E+00  0.00000000E+00
  0.00000000E+00  0.00000000E+00  0.00000000E+00
  0.00000000E+00  0.00000000E+00  0.00000000E+00
  0.00000000E+00  0.00000000E+00  0.00000000E+00
  0.00000000E+00  0.00000000E+00  0.00000000E+00
  0.00000000E+00  0.00000000E+00  0.00000000E+00
  0.00000000E+00  0.00000000E+00  0.00000000E+00
  0.00000000E+00  0.00000000E+00  0.00000000E+00
  0.00000000E+00  0.00000000E+00  0.00000000E+00
  0.00000000E+00  0.00000000E+00  0.00000000E+00
  0.00000000E+00  0.00000000E+00  0.00000000E+00
  0.00000000E+00  0.00000000E+00  0.00000000E+00
  0.00000000E+00  0.00000000E+00  0.00000000E+00
  0.00000000E+00  0.00000000E+00  0.00000000E+00
  0.00000000E+00  0.00000000E+00  0.00000000E+00
  0.00000000E+00  0.00000000E+00  0.00000000E+00
  0.00000000E+00  0.00000000E+00  0.00000000E+00
  0.00000000E+00  0.00000000E+00  0.00000000E+00
  0.00000000E+00  0.00000000E+00  0.00000000E+00
  0.00000000E+00  0.00000000E+00  0.00000000E+00
  0.00000000E+00  0.00000000E+00  0.00000000E+00
  0.00000000E+00  0.00000000E+00  0.00000000E+00
  0.00000000E+00  0.00000000E+00  0.00000000E+00
  0.00000000E+00  0.00000000E+00  0.00000000E+00
  0.00000000E+00  0.00000000E+00  0.00000000E+00
  0.00000000E+00  0.00000000E+00  0.00000000E+00
  0.00000000E+00  0.00000000E+00  0.00000000E+00
  0.00000000E+00  0.00000000E+00  0.00000000E+00
  0.00000000E+00  0.00000000E+00  0.00000000E+00
  0.00000000E+00  0.00000000E+00  0.00000000E+00
  0.00000000E+00  0.00000000E+00  0.00000000E+00
  0.00000000E+00  0.00000000E+00  0.00000000E+00
  0.00000000E+00  0.00000000E+00  0.00000000E+00
  0.00000000E+00  0.00000000E+00  0.00000000E+00
  0.00000000E+00  0.00000000E+00  0.00000000E+00
  0.00000000E+00  0.00000000E+00  0.00000000E+00
  0.00000000E+00  0.00000000E+00  0.00000000E+00
  0.00000000E+00  0.00000000E+00  0.00000000E+00
  0.00000000E+00  0.00000000E+00  0.00000000E+00
  0.00000000E+00  0.00000000E+00  0.00000000E+00
  0.00000000E+00  0.00000000E+00  0.00000000E+00
  0.00000000E+00  0.00000000E+00  0.00000000E+00
  0.00000000E+00  0.00000000E+00  0.00000000E+00
  0.00000000E+00  0.00000000E+00  0.00000000E+00
  0.00000000E+00  0.00000000E+00  0.00000000E+00
  0.00000000E+00  0.00000000E+00  0.00000000E+00
  0.00000000E+00  0.00000000E+00  0.00000000E+00
  0.00000000E+00  0.00000000E+00  0.00000000E+00
  0.00000000E+00  0.00000000E+00  0.00000000E+00
  0.00000000E+00  0.00000000E+00  0.00000000E+00
  0.00000000E+00  0.00000000E+00  0.00000000E+00
  0.00000000E+00  0.00000000E+00  0.00000000E+00
  0.00000000E+00  0.00000000E+00  0.00000000E+00
  0.00000000E+00  0.00000000E+00  0.00000000E+00
  0.00000000E+00  0.00000000E+00  0.00000000E+00
  0.00000000E+00  0.00000000E+00  0.00000000E+00
  0.00000000E+00  0.00000000E+00  0.00000000E+00
  0.00000000E+00  0.00000000E+00  0.00000000E+00
  0.00000000E+00  0.00000000E+00  0.00000000E+00
  0.00000000E+00  0.00000000E+00  0.00000000E+00
  0.00000000E+00  0.00000000E+00  0.00000000E+00
  0.00000000E+00  0.00000000E+00  0.00000000E+00
  0.00000000E+00  0.00000000E+00  0.00000000E+00
  0.00000000E+00  0.00000000E+00  0.00000000E+00
  0.00000000E+00  0.00000000E+00  0.00000000E+00
  0.00000000E+00  0.00000000E+00  0.00000000E+00
  0.00000000E+00  0.00000000E+00  0.00000000E+00
  0.00000000E+00  0.00000000E+00  0.00000000E+00
  0.00000000E+00  0.00000000E+00  0.00000000E+00
  0.00000000E+00  0.00000000E+00  0.00000000E+00
  0.00000000E+00  0.00000000E+00  0.00000000E+00
  0.00000000E+00  0.00000000E+00  0.00000000E+00
  0.00000000E+00  0.00000000E+00  0.00000000E+00
  0.00000000E+00  0.00000000E+00  0.00000000E+00
  0.00000000E+00  0.00000000E+00  0.00000000E+00
  0.00000000E+00  0.00000000E+00  0.00000000E+00
  0.00000000E+00  0.00000000E+00  0.00000000E+00
  0.00000000E+00  0.00000000E+00  0.00000000E+00
  0.00000000E+00  0.00000000E+00  0.00000000E+00
  0.00000000E+00  0.00000000E+00  0.00000000E+00
  0.00000000E+00  0.00000000E+00  0.00000000E+00
  0.00000000E+00  0.00000000E+00  0.00000000E+00
  0.00000000E+00  0.00000000E+00  0.00000000E+00
  0.00000000E+00  0.00000000E+00  0.00000000E+00
  0.00000000E+00  0.00000000E+00  0.00000000E+00
  0.00000000E+00  0.00000000E+00  0.00000000E+00
  0.00000000E+00  0.00000000E+00  0.00000000E+00
  0.00000000E+00  0.00000000E+00  0.00000000E+00
  0.00000000E+00  0.00000000E+00  0.00000000E+00
  0.00000000E+00  0.00000000E+00  0.00000000E+00
  0.00000000E+00  0.00000000E+00  0.00000000E+00
  0.00000000E+00  0.00000000E+00  0.00000000E+00
  0.00000000E+00  0.00000000E+00  0.00000000E+00
  0.00000000E+00  0.00000000E+00  0.00000000E+00
  0.00000000E+00  0.00000000E+00  0.00000000E+00
  0.00000000E+00  0.00000000E+00  0.00000000E+00
