POSCAR                                  
   1.00000000000000     
     5.8969404422737437    0.0057828267697766    0.0054494928543124
    -0.0099902135435423    9.1430926075878265   -0.0129156639683506
     0.1071006570678565    0.1511805670398235   35.3228647909813418
   Ti   O 
    32    68
Selective dynamics
Direct
  0.1078799960000012  0.2397200019999985  0.0843300000000013   F   F   F
  0.1059411541832231  0.2415098831012709  0.2164044654088638   T   T   T
  0.0979164401700491  0.2387211030694734  0.3496057850421608   T   T   T
  0.0709095483662204  0.2257491215138694  0.4839807718666129   T   T   T
  0.3578799960000012  0.4897199870000009  0.0236799999999988   F   F   F
  0.3568980047158500  0.4920321385320655  0.1504444602900679   T   T   T
  0.3526565911364913  0.4898002074275620  0.2839443373171256   T   T   T
  0.3443403817490648  0.4893564643953247  0.4156663578172059   T   T   T
  0.6078799960000012  0.2397200019999985  0.0843300000000013   F   F   F
  0.6047096935847115  0.2420375738017642  0.2166535693686564   T   T   T
  0.6020559749993725  0.2383397431722847  0.3490537826423237   T   T   T
  0.5694052028483958  0.2284124370908478  0.4849009890499849   T   T   T
  0.8578799960000012  0.4897199870000009  0.0236799999999988   F   F   F
  0.8566216480383932  0.4918547312354991  0.1507066671279094   T   T   T
  0.8539340528839517  0.4909325979385281  0.2829243957962384   T   T   T
  0.8419249003361952  0.4878450617331963  0.4168823269984828   T   T   T
  0.1078799960000012  0.7397199870000009  0.0843300000000013   F   F   F
  0.1061172933112353  0.7410879477903698  0.2164138067575958   T   T   T
  0.0992587053421476  0.7405206205886844  0.3496886943155825   T   T   T
  0.0772473975240343  0.7268979934742447  0.4833249120355020   T   T   T
  0.3578799960000012  0.9897199870000009  0.0236799999999988   F   F   F
  0.3569578523758112  0.9919905560218151  0.1505109194996803   T   T   T
  0.3528613183190099  0.9904914223221344  0.2835615558608772   T   T   T
  0.3451704413855087  0.9914752750289741  0.4160551767940195   T   T   T
  0.6078799960000012  0.7397199870000009  0.0843300000000013   F   F   F
  0.6045191595594802  0.7412324514241470  0.2166392054145388   T   T   T
  0.6015157890194195  0.7394930574703882  0.3491004493444781   T   T   T
  0.5781180068239991  0.7297128805871937  0.4844556499352227   T   T   T
  0.8578799960000012  0.9897199870000009  0.0236799999999988   F   F   F
  0.8565589062575467  0.9916727239082159  0.1508136031240431   T   T   T
  0.8537899560312531  0.9907597456532906  0.2827386175112908   T   T   T
  0.8430218966080517  0.9848608206788179  0.4177087756318182   T   T   T
  0.1078799960000012  0.3921200039999988  0.0000000000000000   F   F   F
  0.1068897631362394  0.3939569468744544  0.1258469599410785   T   T   T
  0.1029046945925434  0.3932376901789754  0.2580507005476909   T   T   T
  0.0971445389247736  0.3908467693387884  0.3912416532100680   T   T   T
  0.1078799960000012  0.0873199999999983  0.0473599990000011   F   F   F
  0.1054958527644925  0.0982898687927900  0.1752996677754497   T   T   T
  0.1016209557314331  0.0948918014861840  0.3082097678625924   T   T   T
  0.0955114507691419  0.0947682068237691  0.4412919583483604   T   T   T
  0.3578799960000012  0.3373199999999983  0.0606499980000024   F   F   F
  0.3548620780197332  0.3472804100929781  0.1918225123572346   T   T   T
  0.3506816364438228  0.3451039491724850  0.3244138067791888   T   T   T
  0.3464601128904685  0.3450219875699804  0.4570433899889811   T   T   T
  0.3578799960000012  0.1421200039999988  0.1080100009999967   F   F   F
  0.3535765720374593  0.1431865180455195  0.2417794039732555   T   T   T
  0.3490239640486524  0.1418698400854808  0.3746887980714001   T   T   T
  0.3325842832636692  0.1351496523707359  0.5083595326167475   T   T   T
  0.6078799960000012  0.3921200039999988  0.0000000000000000   F   F   F
  0.6066854782599371  0.3939150468090770  0.1258486914705186   T   T   T
  0.6028908388703159  0.3933121551247376  0.2580298401584120   T   T   T
  0.5979859509267949  0.3904044085949346  0.3913565773475722   T   T   T
  0.6078799960000012  0.0873199999999983  0.0473599990000011   F   F   F
  0.6054885707049772  0.0982528294770352  0.1752987418024654   T   T   T
  0.6011216038234168  0.0949361768815681  0.3082153307474595   T   T   T
  0.5973804494029933  0.0950094814102014  0.4414519601981701   T   T   T
  0.8578799960000012  0.3373199999999983  0.0606499980000024   F   F   F
  0.8549586105348395  0.3472584893176915  0.1918064201843973   T   T   T
  0.8503573941458643  0.3449293770924271  0.3244145877940320   T   T   T
  0.8461324368565626  0.3479933869717804  0.4583204110618716   T   T   T
  0.8578799960000012  0.1421200039999988  0.1080100009999967   F   F   F
  0.8536158536338502  0.1431858446617704  0.2418559410424928   T   T   T
  0.8489936785704606  0.1414824869627995  0.3743864978574638   T   T   T
  0.8328443894660477  0.1417461456151400  0.5095350482750698   T   T   T
  0.1078799960000012  0.8921200039999988  0.0000000000000000   F   F   F
  0.1069061467989974  0.8939366928604997  0.1258499970147303   T   T   T
  0.1027149029999248  0.8930023818438506  0.2580788223873502   T   T   T
  0.0984710373986302  0.8910768399236436  0.3912755722397175   T   T   T
  0.1078799960000012  0.5873200300000008  0.0473599990000011   F   F   F
  0.1054924112910815  0.5981347140808334  0.1752646185944320   T   T   T
  0.1012269883748804  0.5952611656503187  0.3082812036541699   T   T   T
  0.0977207007165612  0.5930243837688896  0.4415911810823693   T   T   T
  0.3578799960000012  0.8373200300000008  0.0606499980000024   F   F   F
  0.3548412394763445  0.8472982216592212  0.1918175221075777   T   T   T
  0.3507833113231169  0.8449439230558765  0.3244713660942622   T   T   T
  0.3450789668822006  0.8483953949585964  0.4580025806077520   T   T   T
  0.3578799960000012  0.6421200039999988  0.1080100009999967   F   F   F
  0.3536250943212015  0.6434240479087905  0.2417628887222366   T   T   T
  0.3490486499889290  0.6411913954317275  0.3746728850999435   T   T   T
  0.3377665819038134  0.6387833382412642  0.5081786500807791   T   T   T
  0.6078799960000012  0.8921200039999988  0.0000000000000000   F   F   F
  0.6066591452517721  0.8938833496623639  0.1258499046460209   T   T   T
  0.6030701561066147  0.8930979587159947  0.2580570290890680   T   T   T
  0.5960091483303588  0.8905922195368783  0.3914987406645825   T   T   T
  0.6078799960000012  0.5873200300000008  0.0473599990000011   F   F   F
  0.6055075917048290  0.5981359773027026  0.1752580885740176   T   T   T
  0.6015883831251657  0.5952948292866558  0.3083236549839751   T   T   T
  0.5981142243706185  0.5941869994984960  0.4414027778370307   T   T   T
  0.8578799960000012  0.8373200300000008  0.0606499980000024   F   F   F
  0.8549641469721825  0.8472782855120009  0.1917983406676546   T   T   T
  0.8502995172397964  0.8450940064136131  0.3245668192156228   T   T   T
  0.8471820072062279  0.8486206892058880  0.4583217944079160   T   T   T
  0.8578799960000012  0.6421200039999988  0.1080100009999967   F   F   F
  0.8535959898634295  0.6431666297237437  0.2418011530990677   T   T   T
  0.8493032150761591  0.6418508186796353  0.3747749497759049   T   T   T
  0.8369279766942727  0.6550713945741246  0.5108374369622549   T   T   T
  0.2388094821167111  0.3622143918369362  0.5173058829861600   T   T   T
  0.2304346705281174  0.8636940620778023  0.5197296112805896   T   T   T
  0.6598746577045476  0.8714818118608328  0.5250128182017606   T   T   T
  0.7178787630736930  0.3681060188188231  0.5194880972202539   T   T   T
 
  0.00000000E+00  0.00000000E+00  0.00000000E+00
  0.00000000E+00  0.00000000E+00  0.00000000E+00
  0.00000000E+00  0.00000000E+00  0.00000000E+00
  0.00000000E+00  0.00000000E+00  0.00000000E+00
  0.00000000E+00  0.00000000E+00  0.00000000E+00
  0.00000000E+00  0.00000000E+00  0.00000000E+00
  0.00000000E+00  0.00000000E+00  0.00000000E+00
  0.00000000E+00  0.00000000E+00  0.00000000E+00
  0.00000000E+00  0.00000000E+00  0.00000000E+00
  0.00000000E+00  0.00000000E+00  0.00000000E+00
  0.00000000E+00  0.00000000E+00  0.00000000E+00
  0.00000000E+00  0.00000000E+00  0.00000000E+00
  0.00000000E+00  0.00000000E+00  0.00000000E+00
  0.00000000E+00  0.00000000E+00  0.00000000E+00
  0.00000000E+00  0.00000000E+00  0.00000000E+00
  0.00000000E+00  0.00000000E+00  0.00000000E+00
  0.00000000E+00  0.00000000E+00  0.00000000E+00
  0.00000000E+00  0.00000000E+00  0.00000000E+00
  0.00000000E+00  0.00000000E+00  0.00000000E+00
  0.00000000E+00  0.00000000E+00  0.00000000E+00
  0.00000000E+00  0.00000000E+00  0.00000000E+00
  0.00000000E+00  0.00000000E+00  0.00000000E+00
  0.00000000E+00  0.00000000E+00  0.00000000E+00
  0.00000000E+00  0.00000000E+00  0.00000000E+00
  0.00000000E+00  0.00000000E+00  0.00000000E+00
  0.00000000E+00  0.00000000E+00  0.00000000E+00
  0.00000000E+00  0.00000000E+00  0.00000000E+00
  0.00000000E+00  0.00000000E+00  0.00000000E+00
  0.00000000E+00  0.00000000E+00  0.00000000E+00
  0.00000000E+00  0.00000000E+00  0.00000000E+00
  0.00000000E+00  0.00000000E+00  0.00000000E+00
  0.00000000E+00  0.00000000E+00  0.00000000E+00
  0.00000000E+00  0.00000000E+00  0.00000000E+00
  0.00000000E+00  0.00000000E+00  0.00000000E+00
  0.00000000E+00  0.00000000E+00  0.00000000E+00
  0.00000000E+00  0.00000000E+00  0.00000000E+00
  0.00000000E+00  0.00000000E+00  0.00000000E+00
  0.00000000E+00  0.00000000E+00  0.00000000E+00
  0.00000000E+00  0.00000000E+00  0.00000000E+00
  0.00000000E+00  0.00000000E+00  0.00000000E+00
  0.00000000E+00  0.00000000E+00  0.00000000E+00
  0.00000000E+00  0.00000000E+00  0.00000000E+00
  0.00000000E+00  0.00000000E+00  0.00000000E+00
  0.00000000E+00  0.00000000E+00  0.00000000E+00
  0.00000000E+00  0.00000000E+00  0.00000000E+00
  0.00000000E+00  0.00000000E+00  0.00000000E+00
  0.00000000E+00  0.00000000E+00  0.00000000E+00
  0.00000000E+00  0.00000000E+00  0.00000000E+00
  0.00000000E+00  0.00000000E+00  0.00000000E+00
  0.00000000E+00  0.00000000E+00  0.00000000E+00
  0.00000000E+00  0.00000000E+00  0.00000000E+00
  0.00000000E+00  0.00000000E+00  0.00000000E+00
  0.00000000E+00  0.00000000E+00  0.00000000E+00
  0.00000000E+00  0.00000000E+00  0.00000000E+00
  0.00000000E+00  0.00000000E+00  0.00000000E+00
  0.00000000E+00  0.00000000E+00  0.00000000E+00
  0.00000000E+00  0.00000000E+00  0.00000000E+00
  0.00000000E+00  0.00000000E+00  0.00000000E+00
  0.00000000E+00  0.00000000E+00  0.00000000E+00
  0.00000000E+00  0.00000000E+00  0.00000000E+00
  0.00000000E+00  0.00000000E+00  0.00000000E+00
  0.00000000E+00  0.00000000E+00  0.00000000E+00
  0.00000000E+00  0.00000000E+00  0.00000000E+00
  0.00000000E+00  0.00000000E+00  0.00000000E+00
  0.00000000E+00  0.00000000E+00  0.00000000E+00
  0.00000000E+00  0.00000000E+00  0.00000000E+00
  0.00000000E+00  0.00000000E+00  0.00000000E+00
  0.00000000E+00  0.00000000E+00  0.00000000E+00
  0.00000000E+00  0.00000000E+00  0.00000000E+00
  0.00000000E+00  0.00000000E+00  0.00000000E+00
  0.00000000E+00  0.00000000E+00  0.00000000E+00
  0.00000000E+00  0.00000000E+00  0.00000000E+00
  0.00000000E+00  0.00000000E+00  0.00000000E+00
  0.00000000E+00  0.00000000E+00  0.00000000E+00
  0.00000000E+00  0.00000000E+00  0.00000000E+00
  0.00000000E+00  0.00000000E+00  0.00000000E+00
  0.00000000E+00  0.00000000E+00  0.00000000E+00
  0.00000000E+00  0.00000000E+00  0.00000000E+00
  0.00000000E+00  0.00000000E+00  0.00000000E+00
  0.00000000E+00  0.00000000E+00  0.00000000E+00
  0.00000000E+00  0.00000000E+00  0.00000000E+00
  0.00000000E+00  0.00000000E+00  0.00000000E+00
  0.00000000E+00  0.00000000E+00  0.00000000E+00
  0.00000000E+00  0.00000000E+00  0.00000000E+00
  0.00000000E+00  0.00000000E+00  0.00000000E+00
  0.00000000E+00  0.00000000E+00  0.00000000E+00
  0.00000000E+00  0.00000000E+00  0.00000000E+00
  0.00000000E+00  0.00000000E+00  0.00000000E+00
  0.00000000E+00  0.00000000E+00  0.00000000E+00
  0.00000000E+00  0.00000000E+00  0.00000000E+00
  0.00000000E+00  0.00000000E+00  0.00000000E+00
  0.00000000E+00  0.00000000E+00  0.00000000E+00
  0.00000000E+00  0.00000000E+00  0.00000000E+00
  0.00000000E+00  0.00000000E+00  0.00000000E+00
  0.00000000E+00  0.00000000E+00  0.00000000E+00
  0.00000000E+00  0.00000000E+00  0.00000000E+00
  0.00000000E+00  0.00000000E+00  0.00000000E+00
  0.00000000E+00  0.00000000E+00  0.00000000E+00
  0.00000000E+00  0.00000000E+00  0.00000000E+00
  0.00000000E+00  0.00000000E+00  0.00000000E+00
