TiO2_rutile\(0\1\0)                     
   1.00000000000000     
     5.8987838884481700   -0.0006888163652479    0.0016692113439564
    -0.0014791168876214    9.1379122886374642   -0.0251259766583408
     0.0167773695032590   -0.0845845201927559   34.5616528554086457
   Ti   O 
    32    67
Selective dynamics
Direct
  0.1078799960000012  0.2397200019999985  0.0843300000000013   F   F   F
  0.1040871268355679  0.2457885814493387  0.2211261993824765   T   T   T
  0.1272214429010844  0.2602442752902248  0.3528247722933958   T   T   T
  0.1082326008537731  0.2357476651432641  0.4967161182587036   T   T   T
  0.3578799960000012  0.4897199870000009  0.0236799999999988   F   F   F
  0.3568911722365209  0.4928069502265713  0.1529843531647874   T   T   T
  0.3557607610833922  0.5141877229154654  0.2840570341066355   T   T   T
  0.3518674059319601  0.4868127511969039  0.4267081849361473   T   T   T
  0.6078799960000012  0.2397200019999985  0.0843300000000013   F   F   F
  0.6055468882063896  0.2460174326147878  0.2210552121675673   T   T   T
  0.5861372447596874  0.2624592727328645  0.3535584645033628   T   T   T
  0.6009294846575755  0.2350435313589994  0.4965677091562609   T   T   T
  0.8578799960000012  0.4897199870000009  0.0236799999999988   F   F   F
  0.8572453619750093  0.4921911909296811  0.1525177224874647   T   T   T
  0.8556685900245115  0.5017857117601988  0.2883883711132588   T   T   T
  0.8593310541273871  0.4953056356919064  0.4261005990196654   T   T   T
  0.1078799960000012  0.7397199870000009  0.0843300000000013   F   F   F
  0.1018253239339513  0.7512970393162488  0.2186493349761278   T   T   T
  0.1070868153968290  0.7491036828987924  0.3583428540226285   T   T   T
  0.0955600303108473  0.7519878226158048  0.5051970939778229   T   T   T
  0.3578799960000012  0.9897199870000009  0.0236799999999988   F   F   F
  0.3564793946724377  0.9972827706155384  0.1522959236482559   T   T   T
  0.3557027760605858  0.9897303093023824  0.2887229245374451   T   T   T
  0.3556236848043889  0.9904057406044852  0.4303131591608824   T   T   T
  0.6078799960000012  0.7397199870000009  0.0843300000000013   F   F   F
  0.6101728926024317  0.7512747785971980  0.2183173366120018   T   T   T
  0.6044122648565627  0.7479546286518437  0.3586188238229213   T   T   T
  0.5926520642899281  0.7233030332473893  0.4975256792030067   T   T   T
  0.8578799960000012  0.9897199870000009  0.0236799999999988   F   F   F
  0.8565461842562290  0.9996751178884924  0.1510142462948934   T   T   T
  0.8543585672813332  0.9937929755500048  0.2905381421147012   T   T   T
  0.8560310411240747  0.9695058048678308  0.4317493741187415   T   T   T
  0.1078799960000012  0.3921200039999988  0.0000000000000000   F   F   F
  0.1071421871329797  0.3946186262100305  0.1272347710089093   T   T   T
  0.1073484992621663  0.3994085393745511  0.2620048818552502   T   T   T
  0.0936814994434963  0.3849712270297289  0.3969651084710562   T   T   T
  0.1078799960000012  0.0873199999999983  0.0473599990000011   F   F   F
  0.1073300284881482  0.1023380867850747  0.1774137295894968   T   T   T
  0.0994840829450412  0.0973922821913332  0.3154964243977161   T   T   T
  0.0970700982779845  0.1001424401433955  0.4476551243530712   T   T   T
  0.3578799960000012  0.3373199999999983  0.0606499980000024   F   F   F
  0.3572580098375772  0.3510802535857259  0.1945003336493910   T   T   T
  0.3565400610447915  0.3568981952088066  0.3284019092727768   T   T   T
  0.3546466017106508  0.3361610829879787  0.4629902593101091   T   T   T
  0.3578799960000012  0.1421200039999988  0.1080100009999967   F   F   F
  0.3565986358060600  0.1493076762663227  0.2467442808809434   T   T   T
  0.3554643678008044  0.1543401017473816  0.3785432632235323   T   T   T
  0.3536704355820740  0.1056562136967059  0.5108149446222096   T   T   T
  0.6078799960000012  0.3921200039999988  0.0000000000000000   F   F   F
  0.6078595244815405  0.3946648842370371  0.1272352060897837   T   T   T
  0.6059278456580330  0.3994708976558102  0.2620036995876230   T   T   T
  0.6174373137150712  0.3858275821421173  0.3969357906216012   T   T   T
  0.6078799960000012  0.0873199999999983  0.0473599990000011   F   F   F
  0.6072657743690245  0.1023231147522520  0.1774118364675499   T   T   T
  0.6134315074617689  0.0972049218850805  0.3156256190515672   T   T   T
  0.6137481454609389  0.0999952467958161  0.4477048684939479   T   T   T
  0.8578799960000012  0.3373199999999983  0.0606499980000024   F   F   F
  0.8571525225335344  0.3515677302365220  0.1947076794828953   T   T   T
  0.8563292080313973  0.3408283276544575  0.3304474400741609   T   T   T
  0.8545468771638480  0.3417323621112949  0.4658855803462171   T   T   T
  0.8578799960000012  0.1421200039999988  0.1080100009999967   F   F   F
  0.8565264246889628  0.1475189119678100  0.2458910910669432   T   T   T
  0.8541171582236999  0.1213441538110007  0.5141347431763613   T   T   T
  0.1078799960000012  0.8921200039999988  0.0000000000000000   F   F   F
  0.1067260183959743  0.8960064652891325  0.1271972119668279   T   T   T
  0.1096850776468481  0.8982834194665589  0.2622529624586056   T   T   T
  0.1033859964551900  0.9006694991515083  0.3976763967383181   T   T   T
  0.1078799960000012  0.5873200300000008  0.0473599990000011   F   F   F
  0.1075029085171533  0.6032446367608099  0.1773850227212669   T   T   T
  0.1058305897603243  0.5985957078537222  0.3134594025305827   T   T   T
  0.1098443271303077  0.5876951080257236  0.4486017184969163   T   T   T
  0.3578799960000012  0.8373200300000008  0.0606499980000024   F   F   F
  0.3570106207494884  0.8526925898232135  0.1943918849490079   T   T   T
  0.3559241880742324  0.8482274424034093  0.3301700171899021   T   T   T
  0.3559923273257965  0.8520063702715288  0.4692297979463767   T   T   T
  0.3578799960000012  0.6421200039999988  0.1080100009999967   F   F   F
  0.3567830745876026  0.6513338551651302  0.2446610458740133   T   T   T
  0.3561835814051695  0.6439890763917721  0.3811625763666003   T   T   T
  0.3493070228624670  0.6462625106246807  0.5209310121684807   T   T   T
  0.6078799960000012  0.8921200039999988  0.0000000000000000   F   F   F
  0.6082055261636096  0.8959976365847405  0.1271918822432772   T   T   T
  0.6034821723159710  0.8983673305613208  0.2622911137738299   T   T   T
  0.6082842905898702  0.9005475740805107  0.3977860175455238   T   T   T
  0.6078799960000012  0.5873200300000008  0.0473599990000011   F   F   F
  0.6070697232031851  0.6033434132936083  0.1773741538725464   T   T   T
  0.6068007087343358  0.5987079867965454  0.3134337173296419   T   T   T
  0.6012878319109664  0.5892363272130154  0.4498094932170207   T   T   T
  0.8578799960000012  0.8373200300000008  0.0606499980000024   F   F   F
  0.8569665239916319  0.8534247968905539  0.1946050705461070   T   T   T
  0.8564716797541322  0.8455386641180203  0.3297736173347761   T   T   T
  0.8570491171880613  0.8370477648901125  0.4679101059493339   T   T   T
  0.8578799960000012  0.6421200039999988  0.1080100009999967   F   F   F
  0.8566369241066475  0.6498752439608891  0.2454097518610319   T   T   T
  0.8553984623185502  0.6468706376969215  0.3822207246224187   T   T   T
  0.8518658132722023  0.6253487166705368  0.5170109779060159   T   T   T
  0.3543638314115420  0.3216859564887632  0.5300673726926013   T   T   T
  0.0708574316490269  0.8857833638471421  0.5424089544003499   T   T   T
  0.7128175806387238  0.8317703170146761  0.5416337755797286   T   T   T
  0.8535828632045108  0.3457450265332623  0.5274174544592810   T   T   T
 
  0.00000000E+00  0.00000000E+00  0.00000000E+00
  0.00000000E+00  0.00000000E+00  0.00000000E+00
  0.00000000E+00  0.00000000E+00  0.00000000E+00
  0.00000000E+00  0.00000000E+00  0.00000000E+00
  0.00000000E+00  0.00000000E+00  0.00000000E+00
  0.00000000E+00  0.00000000E+00  0.00000000E+00
  0.00000000E+00  0.00000000E+00  0.00000000E+00
  0.00000000E+00  0.00000000E+00  0.00000000E+00
  0.00000000E+00  0.00000000E+00  0.00000000E+00
  0.00000000E+00  0.00000000E+00  0.00000000E+00
  0.00000000E+00  0.00000000E+00  0.00000000E+00
  0.00000000E+00  0.00000000E+00  0.00000000E+00
  0.00000000E+00  0.00000000E+00  0.00000000E+00
  0.00000000E+00  0.00000000E+00  0.00000000E+00
  0.00000000E+00  0.00000000E+00  0.00000000E+00
  0.00000000E+00  0.00000000E+00  0.00000000E+00
  0.00000000E+00  0.00000000E+00  0.00000000E+00
  0.00000000E+00  0.00000000E+00  0.00000000E+00
  0.00000000E+00  0.00000000E+00  0.00000000E+00
  0.00000000E+00  0.00000000E+00  0.00000000E+00
  0.00000000E+00  0.00000000E+00  0.00000000E+00
  0.00000000E+00  0.00000000E+00  0.00000000E+00
  0.00000000E+00  0.00000000E+00  0.00000000E+00
  0.00000000E+00  0.00000000E+00  0.00000000E+00
  0.00000000E+00  0.00000000E+00  0.00000000E+00
  0.00000000E+00  0.00000000E+00  0.00000000E+00
  0.00000000E+00  0.00000000E+00  0.00000000E+00
  0.00000000E+00  0.00000000E+00  0.00000000E+00
  0.00000000E+00  0.00000000E+00  0.00000000E+00
  0.00000000E+00  0.00000000E+00  0.00000000E+00
  0.00000000E+00  0.00000000E+00  0.00000000E+00
  0.00000000E+00  0.00000000E+00  0.00000000E+00
  0.00000000E+00  0.00000000E+00  0.00000000E+00
  0.00000000E+00  0.00000000E+00  0.00000000E+00
  0.00000000E+00  0.00000000E+00  0.00000000E+00
  0.00000000E+00  0.00000000E+00  0.00000000E+00
  0.00000000E+00  0.00000000E+00  0.00000000E+00
  0.00000000E+00  0.00000000E+00  0.00000000E+00
  0.00000000E+00  0.00000000E+00  0.00000000E+00
  0.00000000E+00  0.00000000E+00  0.00000000E+00
  0.00000000E+00  0.00000000E+00  0.00000000E+00
  0.00000000E+00  0.00000000E+00  0.00000000E+00
  0.00000000E+00  0.00000000E+00  0.00000000E+00
  0.00000000E+00  0.00000000E+00  0.00000000E+00
  0.00000000E+00  0.00000000E+00  0.00000000E+00
  0.00000000E+00  0.00000000E+00  0.00000000E+00
  0.00000000E+00  0.00000000E+00  0.00000000E+00
  0.00000000E+00  0.00000000E+00  0.00000000E+00
  0.00000000E+00  0.00000000E+00  0.00000000E+00
  0.00000000E+00  0.00000000E+00  0.00000000E+00
  0.00000000E+00  0.00000000E+00  0.00000000E+00
  0.00000000E+00  0.00000000E+00  0.00000000E+00
  0.00000000E+00  0.00000000E+00  0.00000000E+00
  0.00000000E+00  0.00000000E+00  0.00000000E+00
  0.00000000E+00  0.00000000E+00  0.00000000E+00
  0.00000000E+00  0.00000000E+00  0.00000000E+00
  0.00000000E+00  0.00000000E+00  0.00000000E+00
  0.00000000E+00  0.00000000E+00  0.00000000E+00
  0.00000000E+00  0.00000000E+00  0.00000000E+00
  0.00000000E+00  0.00000000E+00  0.00000000E+00
  0.00000000E+00  0.00000000E+00  0.00000000E+00
  0.00000000E+00  0.00000000E+00  0.00000000E+00
  0.00000000E+00  0.00000000E+00  0.00000000E+00
  0.00000000E+00  0.00000000E+00  0.00000000E+00
  0.00000000E+00  0.00000000E+00  0.00000000E+00
  0.00000000E+00  0.00000000E+00  0.00000000E+00
  0.00000000E+00  0.00000000E+00  0.00000000E+00
  0.00000000E+00  0.00000000E+00  0.00000000E+00
  0.00000000E+00  0.00000000E+00  0.00000000E+00
  0.00000000E+00  0.00000000E+00  0.00000000E+00
  0.00000000E+00  0.00000000E+00  0.00000000E+00
  0.00000000E+00  0.00000000E+00  0.00000000E+00
  0.00000000E+00  0.00000000E+00  0.00000000E+00
  0.00000000E+00  0.00000000E+00  0.00000000E+00
  0.00000000E+00  0.00000000E+00  0.00000000E+00
  0.00000000E+00  0.00000000E+00  0.00000000E+00
  0.00000000E+00  0.00000000E+00  0.00000000E+00
  0.00000000E+00  0.00000000E+00  0.00000000E+00
  0.00000000E+00  0.00000000E+00  0.00000000E+00
  0.00000000E+00  0.00000000E+00  0.00000000E+00
  0.00000000E+00  0.00000000E+00  0.00000000E+00
  0.00000000E+00  0.00000000E+00  0.00000000E+00
  0.00000000E+00  0.00000000E+00  0.00000000E+00
  0.00000000E+00  0.00000000E+00  0.00000000E+00
  0.00000000E+00  0.00000000E+00  0.00000000E+00
  0.00000000E+00  0.00000000E+00  0.00000000E+00
  0.00000000E+00  0.00000000E+00  0.00000000E+00
  0.00000000E+00  0.00000000E+00  0.00000000E+00
  0.00000000E+00  0.00000000E+00  0.00000000E+00
  0.00000000E+00  0.00000000E+00  0.00000000E+00
  0.00000000E+00  0.00000000E+00  0.00000000E+00
  0.00000000E+00  0.00000000E+00  0.00000000E+00
  0.00000000E+00  0.00000000E+00  0.00000000E+00
  0.00000000E+00  0.00000000E+00  0.00000000E+00
  0.00000000E+00  0.00000000E+00  0.00000000E+00
  0.00000000E+00  0.00000000E+00  0.00000000E+00
  0.00000000E+00  0.00000000E+00  0.00000000E+00
  0.00000000E+00  0.00000000E+00  0.00000000E+00
  0.00000000E+00  0.00000000E+00  0.00000000E+00
