TiO2_rutile\(0\1\0)                     
   1.00000000000000     
     5.8880914811642135   -0.0010455091685555    0.0037422265031394
    -0.0020164343535618    9.1321215602871941    0.0036202691118684
     0.0289971876204338    0.0255059059345074   34.8948202772797913
   Ti   O 
    32    67
Selective dynamics
Direct
  0.1078799960000012  0.2397200019999985  0.0843300000000013   F   F   F
  0.1054497681619312  0.2458036052649894  0.2197711783955393   T   T   T
  0.1049828414571815  0.2382298692124259  0.3547563954363382   T   T   T
  0.1045064287460775  0.2366302194542448  0.4942734641888047   T   T   T
  0.3578799960000012  0.4897199870000009  0.0236799999999988   F   F   F
  0.3564385983624888  0.4940289757736771  0.1519994747724413   T   T   T
  0.3535001453942487  0.4941096333657886  0.2884282364137586   T   T   T
  0.3537746907577016  0.4931334721620548  0.4216550907382884   T   T   T
  0.6078799960000012  0.2397200019999985  0.0843300000000013   F   F   F
  0.6050398225702931  0.2459565959664714  0.2195031369734677   T   T   T
  0.6013926170536864  0.2404327076557679  0.3557500167373703   T   T   T
  0.6035067362314462  0.2365268366399263  0.4942586077979298   T   T   T
  0.8578799960000012  0.4897199870000009  0.0236799999999988   F   F   F
  0.8570135128207933  0.4935353191327903  0.1520007105134846   T   T   T
  0.8528330226848840  0.4919177911026222  0.2890604513879855   T   T   T
  0.8590962968129090  0.4946746917221058  0.4224848295997510   T   T   T
  0.1078799960000012  0.7397199870000009  0.0843300000000013   F   F   F
  0.1041489112996040  0.7425304389144205  0.2198319560201674   T   T   T
  0.1035931879629802  0.7481841033776713  0.3553046417474165   T   T   T
  0.1050929706083013  0.7327320529327163  0.4941715324238384   T   T   T
  0.3578799960000012  0.9897199870000009  0.0236799999999988   F   F   F
  0.3565505314847277  0.9927110297807175  0.1526519526099996   T   T   T
  0.3547282061494962  0.9935240951134258  0.2869300940276605   T   T   T
  0.3510993252342144  0.9877484856699776  0.4261019171668955   T   T   T
  0.6078799960000012  0.7397199870000009  0.0843300000000013   F   F   F
  0.6054744838758434  0.7417797116191454  0.2194405528816201   T   T   T
  0.6046389019012153  0.7473038309397327  0.3559306383653147   T   T   T
  0.5935570687306628  0.7261142647455476  0.4914100781537746   T   T   T
  0.8578799960000012  0.9897199870000009  0.0236799999999988   F   F   F
  0.8567950007691996  0.9933311626495289  0.1524608132879475   T   T   T
  0.8527120394793511  0.9958421967573504  0.2871343955716693   T   T   T
  0.8514120948362417  0.9973747140370828  0.4248218953118530   T   T   T
  0.1078799960000012  0.3921200039999988  0.0000000000000000   F   F   F
  0.1073100451163320  0.3946069245050149  0.1272530332076213   T   T   T
  0.1057631660903384  0.3954587959555317  0.2623296577506289   T   T   T
  0.1053283542113152  0.3938288254165361  0.3974730038183832   T   T   T
  0.1078799960000012  0.0873199999999983  0.0473599990000011   F   F   F
  0.1068774487023604  0.1016049627814083  0.1773004357297541   T   T   T
  0.1052222745216443  0.0975804161276006  0.3129571339129879   T   T   T
  0.1041953855675832  0.0983473997804214  0.4489758365291202   T   T   T
  0.3578799960000012  0.3373199999999983  0.0606499980000024   F   F   F
  0.3566924628334945  0.3505220150143084  0.1946721356971052   T   T   T
  0.3551171409030938  0.3473474840109674  0.3298695334574830   T   T   T
  0.3546065692684991  0.3395163442465143  0.4630315395136131   T   T   T
  0.3578799960000012  0.1421200039999988  0.1080100009999967   F   F   F
  0.3560326022257471  0.1449833201903889  0.2452777471090319   T   T   T
  0.3540702945026150  0.1434947921705890  0.3806522099863580   T   T   T
  0.3543803301369424  0.1212756559110549  0.5135692786917586   T   T   T
  0.6078799960000012  0.3921200039999988  0.0000000000000000   F   F   F
  0.6073512410297073  0.3946801852466679  0.1272588310187245   T   T   T
  0.6058746713438073  0.3953999362418446  0.2623642438987208   T   T   T
  0.6042395100798454  0.3938475611098172  0.3974807091814574   T   T   T
  0.6078799960000012  0.0873199999999983  0.0473599990000011   F   F   F
  0.6071057330770262  0.1016413953493783  0.1773112054965683   T   T   T
  0.6055946229590220  0.0974631441442000  0.3129850780594959   T   T   T
  0.6034847291503143  0.0982605924867845  0.4489773669255122   T   T   T
  0.8578799960000012  0.3373199999999983  0.0606499980000024   F   F   F
  0.8566042133964363  0.3505544672837116  0.1946787182402187   T   T   T
  0.8553453382210219  0.3477021640623257  0.3298913524929112   T   T   T
  0.8541327053595469  0.3391046643982283  0.4628288147455831   T   T   T
  0.8578799960000012  0.1421200039999988  0.1080100009999967   F   F   F
  0.8560729888404112  0.1449135934296887  0.2452896045107048   T   T   T
  0.8545735326416019  0.1229111064551133  0.5135345357121299   T   T   T
  0.1078799960000012  0.8921200039999988  0.0000000000000000   F   F   F
  0.1073221658314101  0.8944298780352153  0.1273027856888136   T   T   T
  0.1057567474608668  0.8944011877207129  0.2623968369708042   T   T   T
  0.1032577277840314  0.8926998320755618  0.3987985831944555   T   T   T
  0.1078799960000012  0.5873200300000008  0.0473599990000011   F   F   F
  0.1070507196265332  0.6008761257901414  0.1770649354706843   T   T   T
  0.1057642295752062  0.5990682430094295  0.3135442183548812   T   T   T
  0.1030710966197217  0.5925749015123574  0.4496312073578261   T   T   T
  0.3578799960000012  0.8373200300000008  0.0606499980000024   F   F   F
  0.3568583501516880  0.8502704229045328  0.1946444213998216   T   T   T
  0.3548227437947530  0.8490643153462326  0.3304142546430907   T   T   T
  0.3528322030035117  0.8504635071979642  0.4674309620861986   T   T   T
  0.3578799960000012  0.6421200039999988  0.1080100009999967   F   F   F
  0.3560739510109509  0.6450189757547226  0.2451923631763331   T   T   T
  0.3549025943899821  0.6448678921672303  0.3814738767564747   T   T   T
  0.3520370890853524  0.6538816561685453  0.5187880098431952   T   T   T
  0.6078799960000012  0.8921200039999988  0.0000000000000000   F   F   F
  0.6074199142940861  0.8944791974522581  0.1272959283233316   T   T   T
  0.6056876163243788  0.8943815237008201  0.2624164576003227   T   T   T
  0.6042384368095545  0.8932294534777474  0.3986001217806848   T   T   T
  0.6078799960000012  0.5873200300000008  0.0473599990000011   F   F   F
  0.6068402731720096  0.6009396076019652  0.1770631846245798   T   T   T
  0.6050261994145704  0.5990935012502602  0.3134925481545519   T   T   T
  0.6056654239670842  0.5917081161191257  0.4496429562312422   T   T   T
  0.8578799960000012  0.8373200300000008  0.0606499980000024   F   F   F
  0.8566607287472997  0.8501950339334763  0.1946431426030523   T   T   T
  0.8552725507475886  0.8490693390437718  0.3304258877836140   T   T   T
  0.8520019567632940  0.8498090888730911  0.4662289725321099   T   T   T
  0.8578799960000012  0.6421200039999988  0.1080100009999967   F   F   F
  0.8559318851328124  0.6452961732908252  0.2451438633722027   T   T   T
  0.8543318609122327  0.6444133497408767  0.3811936067342658   T   T   T
  0.8505269250107000  0.6430688973086495  0.5176127020898984   T   T   T
  0.3536358249769628  0.3483310626070712  0.5242594956563947   T   T   T
  0.0839730193009518  0.8780294354489881  0.5376368010321981   T   T   T
  0.7272365926906883  0.8656214680054246  0.5308068966547386   T   T   T
  0.8535897621307823  0.3493185972983370  0.5239667198506407   T   T   T
 
  0.00000000E+00  0.00000000E+00  0.00000000E+00
  0.00000000E+00  0.00000000E+00  0.00000000E+00
  0.00000000E+00  0.00000000E+00  0.00000000E+00
  0.00000000E+00  0.00000000E+00  0.00000000E+00
  0.00000000E+00  0.00000000E+00  0.00000000E+00
  0.00000000E+00  0.00000000E+00  0.00000000E+00
  0.00000000E+00  0.00000000E+00  0.00000000E+00
  0.00000000E+00  0.00000000E+00  0.00000000E+00
  0.00000000E+00  0.00000000E+00  0.00000000E+00
  0.00000000E+00  0.00000000E+00  0.00000000E+00
  0.00000000E+00  0.00000000E+00  0.00000000E+00
  0.00000000E+00  0.00000000E+00  0.00000000E+00
  0.00000000E+00  0.00000000E+00  0.00000000E+00
  0.00000000E+00  0.00000000E+00  0.00000000E+00
  0.00000000E+00  0.00000000E+00  0.00000000E+00
  0.00000000E+00  0.00000000E+00  0.00000000E+00
  0.00000000E+00  0.00000000E+00  0.00000000E+00
  0.00000000E+00  0.00000000E+00  0.00000000E+00
  0.00000000E+00  0.00000000E+00  0.00000000E+00
  0.00000000E+00  0.00000000E+00  0.00000000E+00
  0.00000000E+00  0.00000000E+00  0.00000000E+00
  0.00000000E+00  0.00000000E+00  0.00000000E+00
  0.00000000E+00  0.00000000E+00  0.00000000E+00
  0.00000000E+00  0.00000000E+00  0.00000000E+00
  0.00000000E+00  0.00000000E+00  0.00000000E+00
  0.00000000E+00  0.00000000E+00  0.00000000E+00
  0.00000000E+00  0.00000000E+00  0.00000000E+00
  0.00000000E+00  0.00000000E+00  0.00000000E+00
  0.00000000E+00  0.00000000E+00  0.00000000E+00
  0.00000000E+00  0.00000000E+00  0.00000000E+00
  0.00000000E+00  0.00000000E+00  0.00000000E+00
  0.00000000E+00  0.00000000E+00  0.00000000E+00
  0.00000000E+00  0.00000000E+00  0.00000000E+00
  0.00000000E+00  0.00000000E+00  0.00000000E+00
  0.00000000E+00  0.00000000E+00  0.00000000E+00
  0.00000000E+00  0.00000000E+00  0.00000000E+00
  0.00000000E+00  0.00000000E+00  0.00000000E+00
  0.00000000E+00  0.00000000E+00  0.00000000E+00
  0.00000000E+00  0.00000000E+00  0.00000000E+00
  0.00000000E+00  0.00000000E+00  0.00000000E+00
  0.00000000E+00  0.00000000E+00  0.00000000E+00
  0.00000000E+00  0.00000000E+00  0.00000000E+00
  0.00000000E+00  0.00000000E+00  0.00000000E+00
  0.00000000E+00  0.00000000E+00  0.00000000E+00
  0.00000000E+00  0.00000000E+00  0.00000000E+00
  0.00000000E+00  0.00000000E+00  0.00000000E+00
  0.00000000E+00  0.00000000E+00  0.00000000E+00
  0.00000000E+00  0.00000000E+00  0.00000000E+00
  0.00000000E+00  0.00000000E+00  0.00000000E+00
  0.00000000E+00  0.00000000E+00  0.00000000E+00
  0.00000000E+00  0.00000000E+00  0.00000000E+00
  0.00000000E+00  0.00000000E+00  0.00000000E+00
  0.00000000E+00  0.00000000E+00  0.00000000E+00
  0.00000000E+00  0.00000000E+00  0.00000000E+00
  0.00000000E+00  0.00000000E+00  0.00000000E+00
  0.00000000E+00  0.00000000E+00  0.00000000E+00
  0.00000000E+00  0.00000000E+00  0.00000000E+00
  0.00000000E+00  0.00000000E+00  0.00000000E+00
  0.00000000E+00  0.00000000E+00  0.00000000E+00
  0.00000000E+00  0.00000000E+00  0.00000000E+00
  0.00000000E+00  0.00000000E+00  0.00000000E+00
  0.00000000E+00  0.00000000E+00  0.00000000E+00
  0.00000000E+00  0.00000000E+00  0.00000000E+00
  0.00000000E+00  0.00000000E+00  0.00000000E+00
  0.00000000E+00  0.00000000E+00  0.00000000E+00
  0.00000000E+00  0.00000000E+00  0.00000000E+00
  0.00000000E+00  0.00000000E+00  0.00000000E+00
  0.00000000E+00  0.00000000E+00  0.00000000E+00
  0.00000000E+00  0.00000000E+00  0.00000000E+00
  0.00000000E+00  0.00000000E+00  0.00000000E+00
  0.00000000E+00  0.00000000E+00  0.00000000E+00
  0.00000000E+00  0.00000000E+00  0.00000000E+00
  0.00000000E+00  0.00000000E+00  0.00000000E+00
  0.00000000E+00  0.00000000E+00  0.00000000E+00
  0.00000000E+00  0.00000000E+00  0.00000000E+00
  0.00000000E+00  0.00000000E+00  0.00000000E+00
  0.00000000E+00  0.00000000E+00  0.00000000E+00
  0.00000000E+00  0.00000000E+00  0.00000000E+00
  0.00000000E+00  0.00000000E+00  0.00000000E+00
  0.00000000E+00  0.00000000E+00  0.00000000E+00
  0.00000000E+00  0.00000000E+00  0.00000000E+00
  0.00000000E+00  0.00000000E+00  0.00000000E+00
  0.00000000E+00  0.00000000E+00  0.00000000E+00
  0.00000000E+00  0.00000000E+00  0.00000000E+00
  0.00000000E+00  0.00000000E+00  0.00000000E+00
  0.00000000E+00  0.00000000E+00  0.00000000E+00
  0.00000000E+00  0.00000000E+00  0.00000000E+00
  0.00000000E+00  0.00000000E+00  0.00000000E+00
  0.00000000E+00  0.00000000E+00  0.00000000E+00
  0.00000000E+00  0.00000000E+00  0.00000000E+00
  0.00000000E+00  0.00000000E+00  0.00000000E+00
  0.00000000E+00  0.00000000E+00  0.00000000E+00
  0.00000000E+00  0.00000000E+00  0.00000000E+00
  0.00000000E+00  0.00000000E+00  0.00000000E+00
  0.00000000E+00  0.00000000E+00  0.00000000E+00
  0.00000000E+00  0.00000000E+00  0.00000000E+00
  0.00000000E+00  0.00000000E+00  0.00000000E+00
  0.00000000E+00  0.00000000E+00  0.00000000E+00
  0.00000000E+00  0.00000000E+00  0.00000000E+00
  0.00000000E+00  0.00000000E+00  0.00000000E+00
