CONTCAR                                 
   1.00000000000000     
     5.8958779448986824    0.0022833869834188   -0.0009760972268868
    -0.0001604282511534    9.1488304047112781   -0.0250178796134782
     0.0450486947415380   -0.0609211253485123   34.0157324196959436
   Ti   O 
    32    66
Selective dynamics
Direct
  0.1078799960000012  0.2397200019999985  0.0843300000000013   F   F   F
  0.1050817602345440  0.2542222529626804  0.2207723810252415   T   T   T
  0.1043455992180694  0.2427226970448346  0.3636081369460150   T   T   T
  0.1242019882688430  0.2297337016444307  0.5062908591427618   T   T   T
  0.3578799960000012  0.4897199870000009  0.0236799999999988   F   F   F
  0.3569386972178040  0.4983832401416540  0.1527380769281825   T   T   T
  0.3562960918616084  0.4872864460607106  0.2940753975786438   T   T   T
  0.3677302159264204  0.4915834342456576  0.4298649000302063   T   T   T
  0.6078799960000012  0.2397200019999985  0.0843300000000013   F   F   F
  0.6094509040447698  0.2534778414629221  0.2209341186731520   T   T   T
  0.6053470242951076  0.2350316587850389  0.3623763659461790   T   T   T
  0.5864931284177169  0.2302594638511680  0.5064420177372149   T   T   T
  0.8578799960000012  0.4897199870000009  0.0236799999999988   F   F   F
  0.8561875698123443  0.5000539078693557  0.1520930843255206   T   T   T
  0.8561870975995824  0.4904526400903628  0.2949054698876011   T   T   T
  0.8551286659616970  0.4613200316056064  0.4387638520198726   T   T   T
  0.1078799960000012  0.7397199870000009  0.0843300000000013   F   F   F
  0.1063283808348017  0.7422795032365814  0.2232458142822117   T   T   T
  0.1248879834111031  0.7615647104095412  0.3587342969076584   T   T   T
  0.0892040276570043  0.7166087017305313  0.5002028204975509   T   T   T
  0.3578799960000012  0.9897199870000009  0.0236799999999988   F   F   F
  0.3572429303588690  0.9923626879700544  0.1544659653331766   T   T   T
  0.3552880676512061  0.0112699352953547  0.2871708477123083   T   T   T
  0.3548093497838027  0.9803680543905192  0.4361862327984155   T   T   T
  0.6078799960000012  0.7397199870000009  0.0843300000000013   F   F   F
  0.6068375826130333  0.7438007105925813  0.2236817389513929   T   T   T
  0.5875075491223792  0.7622997327084415  0.3586193393703402   T   T   T
  0.5987417428221480  0.7357130582111668  0.5080135579039011   T   T   T
  0.8578799960000012  0.9897199870000009  0.0236799999999988   F   F   F
  0.8572539425293337  0.9920061318133739  0.1543057814109618   T   T   T
  0.8583941620833486  0.0044727941439797  0.2897750397414264   T   T   T
  0.8549212630948800  0.9825372222085280  0.4354431772355647   T   T   T
  0.1078799960000012  0.3921200039999988  0.0000000000000000   F   F   F
  0.1069735082927193  0.3965063989664387  0.1280931255099636   T   T   T
  0.1093757658081379  0.3978021805116680  0.2653720035280047   T   T   T
  0.0931470908065785  0.3996264372275547  0.4022675627842739   T   T   T
  0.1078799960000012  0.0873199999999983  0.0473599990000011   F   F   F
  0.1070838441741338  0.1044545053233484  0.1790726582796239   T   T   T
  0.1055701432699990  0.0960876623341324  0.3171141157702199   T   T   T
  0.1059958405906167  0.0916200098394139  0.4556743939181153   T   T   T
  0.3578799960000012  0.3373199999999983  0.0606499980000024   F   F   F
  0.3569148537048149  0.3533824522266693  0.1963966401912640   T   T   T
  0.3558916328278040  0.3460921342978816  0.3343626340470274   T   T   T
  0.3549091417723035  0.3353324169924911  0.4695767356520865   T   T   T
  0.3578799960000012  0.1421200039999988  0.1080100009999967   F   F   F
  0.3566464447351712  0.1501096231675503  0.2474408355470412   T   T   T
  0.3545883424534674  0.1423830453269511  0.3862195498737349   T   T   T
  0.3552924998993411  0.0974505536694841  0.5200677791356436   T   T   T
  0.6078799960000012  0.3921200039999988  0.0000000000000000   F   F   F
  0.6079705655488874  0.3964371905400269  0.1280691871048044   T   T   T
  0.6032264421447144  0.3979622629074877  0.2653438864084183   T   T   T
  0.6157251193714224  0.3960035434115164  0.4025883340903855   T   T   T
  0.6078799960000012  0.0873199999999983  0.0473599990000011   F   F   F
  0.6070291811348687  0.1045146982984544  0.1790488080393602   T   T   T
  0.6058379828474942  0.0955180098041351  0.3172941246471898   T   T   T
  0.6038281139954287  0.0911387287998484  0.4558130843561656   T   T   T
  0.8578799960000012  0.3373199999999983  0.0606499980000024   F   F   F
  0.8569017512719078  0.3539870620295569  0.1966300566528572   T   T   T
  0.8550624818163346  0.3425455070011624  0.3334051246464093   T   T   T
  0.8547538726651019  0.3285636968646241  0.4759725849894434   T   T   T
  0.8578799960000012  0.1421200039999988  0.1080100009999967   F   F   F
  0.8563266831557982  0.1488468558377375  0.2482740802763454   T   T   T
  0.8553777884804479  0.1420573896865663  0.3862972167245613   T   T   T
  0.8551909856709569  0.1094398866976064  0.5257918714916663   T   T   T
  0.1078799960000012  0.8921200039999988  0.0000000000000000   F   F   F
  0.1073375767196683  0.8946987671120351  0.1281898672484586   T   T   T
  0.1062936552709048  0.8973124525077927  0.2654311874886280   T   T   T
  0.0991042200951483  0.8811561747111610  0.4037809391886510   T   T   T
  0.1078799960000012  0.5873200300000008  0.0473599990000011   F   F   F
  0.1072343119493615  0.6027103730262450  0.1787476586187144   T   T   T
  0.0998480807874887  0.5964430637740251  0.3199792480236346   T   T   T
  0.1037944195009255  0.5902892944777067  0.4553755381887357   T   T   T
  0.3578799960000012  0.8373200300000008  0.0606499980000024   F   F   F
  0.3568269208834916  0.8516880020691254  0.1966164732042079   T   T   T
  0.3558212850583193  0.8556853564436714  0.3335536914751285   T   T   T
  0.3530038277299352  0.8420769253869453  0.4744200576586438   T   T   T
  0.3578799960000012  0.6421200039999988  0.1080100009999967   F   F   F
  0.3563125933952795  0.6488514863299887  0.2492404104029609   T   T   T
  0.3555394121193092  0.6472120078369805  0.3847762998087882   T   T   T
  0.3279042978842941  0.6684820530693012  0.5305236999678012   T   T   T
  0.6078799960000012  0.8921200039999988  0.0000000000000000   F   F   F
  0.6076554870370158  0.8946868994348356  0.1281966244581962   T   T   T
  0.6061143116464570  0.8972440297282460  0.2654886474196098   T   T   T
  0.6115265798960167  0.8814814684304990  0.4037460218050469   T   T   T
  0.6078799960000012  0.5873200300000008  0.0473599990000011   F   F   F
  0.6069504151836398  0.6025880046067735  0.1787493625983892   T   T   T
  0.6118329588239811  0.5964120554317558  0.3200371326155982   T   T   T
  0.6071642683150534  0.5895432850225401  0.4546318226019433   T   T   T
  0.8578799960000012  0.8373200300000008  0.0606499980000024   F   F   F
  0.8568802786412907  0.8519594240727407  0.1967378744019793   T   T   T
  0.8560887142243514  0.8375753973569429  0.3363051052751798   T   T   T
  0.8569170349396976  0.8453807795254420  0.4741841420094920   T   T   T
  0.8578799960000012  0.6421200039999988  0.1080100009999967   F   F   F
  0.8566483187965289  0.6469739663339363  0.2484966734776900   T   T   T
  0.8462169180214760  0.6068791197233632  0.5199244201028436   T   T   T
  0.3550410931123228  0.3440400649437351  0.5349201300424806   T   T   T
  0.7580206807394577  0.8126309893535435  0.5478794591867123   T   T   T
  0.8556163716319177  0.2501127140932584  0.5462926591362124   T   T   T
 
  0.00000000E+00  0.00000000E+00  0.00000000E+00
  0.00000000E+00  0.00000000E+00  0.00000000E+00
  0.00000000E+00  0.00000000E+00  0.00000000E+00
  0.00000000E+00  0.00000000E+00  0.00000000E+00
  0.00000000E+00  0.00000000E+00  0.00000000E+00
  0.00000000E+00  0.00000000E+00  0.00000000E+00
  0.00000000E+00  0.00000000E+00  0.00000000E+00
  0.00000000E+00  0.00000000E+00  0.00000000E+00
  0.00000000E+00  0.00000000E+00  0.00000000E+00
  0.00000000E+00  0.00000000E+00  0.00000000E+00
  0.00000000E+00  0.00000000E+00  0.00000000E+00
  0.00000000E+00  0.00000000E+00  0.00000000E+00
  0.00000000E+00  0.00000000E+00  0.00000000E+00
  0.00000000E+00  0.00000000E+00  0.00000000E+00
  0.00000000E+00  0.00000000E+00  0.00000000E+00
  0.00000000E+00  0.00000000E+00  0.00000000E+00
  0.00000000E+00  0.00000000E+00  0.00000000E+00
  0.00000000E+00  0.00000000E+00  0.00000000E+00
  0.00000000E+00  0.00000000E+00  0.00000000E+00
  0.00000000E+00  0.00000000E+00  0.00000000E+00
  0.00000000E+00  0.00000000E+00  0.00000000E+00
  0.00000000E+00  0.00000000E+00  0.00000000E+00
  0.00000000E+00  0.00000000E+00  0.00000000E+00
  0.00000000E+00  0.00000000E+00  0.00000000E+00
  0.00000000E+00  0.00000000E+00  0.00000000E+00
  0.00000000E+00  0.00000000E+00  0.00000000E+00
  0.00000000E+00  0.00000000E+00  0.00000000E+00
  0.00000000E+00  0.00000000E+00  0.00000000E+00
  0.00000000E+00  0.00000000E+00  0.00000000E+00
  0.00000000E+00  0.00000000E+00  0.00000000E+00
  0.00000000E+00  0.00000000E+00  0.00000000E+00
  0.00000000E+00  0.00000000E+00  0.00000000E+00
  0.00000000E+00  0.00000000E+00  0.00000000E+00
  0.00000000E+00  0.00000000E+00  0.00000000E+00
  0.00000000E+00  0.00000000E+00  0.00000000E+00
  0.00000000E+00  0.00000000E+00  0.00000000E+00
  0.00000000E+00  0.00000000E+00  0.00000000E+00
  0.00000000E+00  0.00000000E+00  0.00000000E+00
  0.00000000E+00  0.00000000E+00  0.00000000E+00
  0.00000000E+00  0.00000000E+00  0.00000000E+00
  0.00000000E+00  0.00000000E+00  0.00000000E+00
  0.00000000E+00  0.00000000E+00  0.00000000E+00
  0.00000000E+00  0.00000000E+00  0.00000000E+00
  0.00000000E+00  0.00000000E+00  0.00000000E+00
  0.00000000E+00  0.00000000E+00  0.00000000E+00
  0.00000000E+00  0.00000000E+00  0.00000000E+00
  0.00000000E+00  0.00000000E+00  0.00000000E+00
  0.00000000E+00  0.00000000E+00  0.00000000E+00
  0.00000000E+00  0.00000000E+00  0.00000000E+00
  0.00000000E+00  0.00000000E+00  0.00000000E+00
  0.00000000E+00  0.00000000E+00  0.00000000E+00
  0.00000000E+00  0.00000000E+00  0.00000000E+00
  0.00000000E+00  0.00000000E+00  0.00000000E+00
  0.00000000E+00  0.00000000E+00  0.00000000E+00
  0.00000000E+00  0.00000000E+00  0.00000000E+00
  0.00000000E+00  0.00000000E+00  0.00000000E+00
  0.00000000E+00  0.00000000E+00  0.00000000E+00
  0.00000000E+00  0.00000000E+00  0.00000000E+00
  0.00000000E+00  0.00000000E+00  0.00000000E+00
  0.00000000E+00  0.00000000E+00  0.00000000E+00
  0.00000000E+00  0.00000000E+00  0.00000000E+00
  0.00000000E+00  0.00000000E+00  0.00000000E+00
  0.00000000E+00  0.00000000E+00  0.00000000E+00
  0.00000000E+00  0.00000000E+00  0.00000000E+00
  0.00000000E+00  0.00000000E+00  0.00000000E+00
  0.00000000E+00  0.00000000E+00  0.00000000E+00
  0.00000000E+00  0.00000000E+00  0.00000000E+00
  0.00000000E+00  0.00000000E+00  0.00000000E+00
  0.00000000E+00  0.00000000E+00  0.00000000E+00
  0.00000000E+00  0.00000000E+00  0.00000000E+00
  0.00000000E+00  0.00000000E+00  0.00000000E+00
  0.00000000E+00  0.00000000E+00  0.00000000E+00
  0.00000000E+00  0.00000000E+00  0.00000000E+00
  0.00000000E+00  0.00000000E+00  0.00000000E+00
  0.00000000E+00  0.00000000E+00  0.00000000E+00
  0.00000000E+00  0.00000000E+00  0.00000000E+00
  0.00000000E+00  0.00000000E+00  0.00000000E+00
  0.00000000E+00  0.00000000E+00  0.00000000E+00
  0.00000000E+00  0.00000000E+00  0.00000000E+00
  0.00000000E+00  0.00000000E+00  0.00000000E+00
  0.00000000E+00  0.00000000E+00  0.00000000E+00
  0.00000000E+00  0.00000000E+00  0.00000000E+00
  0.00000000E+00  0.00000000E+00  0.00000000E+00
  0.00000000E+00  0.00000000E+00  0.00000000E+00
  0.00000000E+00  0.00000000E+00  0.00000000E+00
  0.00000000E+00  0.00000000E+00  0.00000000E+00
  0.00000000E+00  0.00000000E+00  0.00000000E+00
  0.00000000E+00  0.00000000E+00  0.00000000E+00
  0.00000000E+00  0.00000000E+00  0.00000000E+00
  0.00000000E+00  0.00000000E+00  0.00000000E+00
  0.00000000E+00  0.00000000E+00  0.00000000E+00
  0.00000000E+00  0.00000000E+00  0.00000000E+00
  0.00000000E+00  0.00000000E+00  0.00000000E+00
  0.00000000E+00  0.00000000E+00  0.00000000E+00
  0.00000000E+00  0.00000000E+00  0.00000000E+00
  0.00000000E+00  0.00000000E+00  0.00000000E+00
  0.00000000E+00  0.00000000E+00  0.00000000E+00
  0.00000000E+00  0.00000000E+00  0.00000000E+00
