CONTCAR                                 
   1.00000000000000     
     5.9078060208637559    0.0007373768496541   -0.0007864286550943
    -0.0025282020567804    9.1260134262929995    0.0060410136971503
     0.0464018264860003    0.0626417190118992   34.5389232004476057
   Ti   O 
    32    67
Selective dynamics
Direct
  0.1078799960000012  0.2397200019999985  0.0843300000000013   F   F   F
  0.1060590650856857  0.2479787363932251  0.2203653584673869   T   T   T
  0.1044733060501993  0.2260289878296430  0.3531384164082743   T   T   T
  0.1032396005775676  0.2335012315887374  0.4957775777541304   T   T   T
  0.3578799960000012  0.4897199870000009  0.0236799999999988   F   F   F
  0.3565155670372780  0.4930935481766665  0.1515137883916807   T   T   T
  0.3528818249347846  0.4936175634419737  0.2902444624787395   T   T   T
  0.3345481181829627  0.4842812344498590  0.4203804674978689   T   T   T
  0.6078799960000012  0.2397200019999985  0.0843300000000013   F   F   F
  0.6060603671963616  0.2492554594655534  0.2202283178423759   T   T   T
  0.6048213053666909  0.2342093922721704  0.3559270644893347   T   T   T
  0.6044846441636965  0.2433249508709999  0.4957232242869444   T   T   T
  0.8578799960000012  0.4897199870000009  0.0236799999999988   F   F   F
  0.8576730279700991  0.4931362789987424  0.1515236576511446   T   T   T
  0.8530599356524197  0.4934874001971996  0.2901647789558183   T   T   T
  0.8749246645419786  0.4870975473508445  0.4208979422826070   T   T   T
  0.1078799960000012  0.7397199870000009  0.0843300000000013   F   F   F
  0.1053471112204464  0.7393877487943048  0.2196218045418852   T   T   T
  0.1047757446714514  0.7558663566506446  0.3571789792795679   T   T   T
  0.1141925272561118  0.7397902247511472  0.4989370619639451   T   T   T
  0.3578799960000012  0.9897199870000009  0.0236799999999988   F   F   F
  0.3564518291861641  0.9932837653600231  0.1528389648886130   T   T   T
  0.3579420836729320  0.9913428760542712  0.2858764052385879   T   T   T
  0.3564832340904036  0.9893658327333387  0.4292777785607675   T   T   T
  0.6078799960000012  0.7397199870000009  0.0843300000000013   F   F   F
  0.6053269977766592  0.7372976746027008  0.2190303935126442   T   T   T
  0.6042388513133190  0.7515061574615004  0.3575991648376651   T   T   T
  0.6149877504144270  0.7702532366538629  0.5059887859856967   T   T   T
  0.8578799960000012  0.9897199870000009  0.0236799999999988   F   F   F
  0.8562474450282114  0.9932922014941553  0.1528537785911851   T   T   T
  0.8531660005064459  0.9914241133127408  0.2859360317014205   T   T   T
  0.8526990613014593  0.9855698201923443  0.4284701970235132   T   T   T
  0.1078799960000012  0.3921200039999988  0.0000000000000000   F   F   F
  0.1073137922491191  0.3942880586839581  0.1270660996956264   T   T   T
  0.1060959247705433  0.3948315829922878  0.2624295958242733   T   T   T
  0.1026269584780158  0.3898367118989302  0.3960886160863158   T   T   T
  0.1078799960000012  0.0873199999999983  0.0473599990000011   F   F   F
  0.1069295872339408  0.1008189817018053  0.1776626133052578   T   T   T
  0.1056892926581949  0.0927218732679827  0.3125541265203182   T   T   T
  0.1023462328018186  0.1027838678979750  0.4501272575628953   T   T   T
  0.3578799960000012  0.3373199999999983  0.0606499980000024   F   F   F
  0.3565356069778574  0.3494972457340211  0.1946350916304662   T   T   T
  0.3560171657549231  0.3459821149951711  0.3300881263358484   T   T   T
  0.3658462406587798  0.3509414653907685  0.4643759141736611   T   T   T
  0.3578799960000012  0.1421200039999988  0.1080100009999967   F   F   F
  0.3562685756773888  0.1432615868880733  0.2457022370610677   T   T   T
  0.3536948086297914  0.1473875132353279  0.3814145229466647   T   T   T
  0.3542547939180989  0.1263529446407039  0.5148522423693723   T   T   T
  0.6078799960000012  0.3921200039999988  0.0000000000000000   F   F   F
  0.6073316671219251  0.3944366175619630  0.1270858204784332   T   T   T
  0.6058856070859104  0.3945764158311793  0.2624287048053763   T   T   T
  0.6064028228302742  0.4029847922107730  0.4001881624047269   T   T   T
  0.6078799960000012  0.0873199999999983  0.0473599990000011   F   F   F
  0.6069804475230883  0.1008125352845474  0.1776347438396838   T   T   T
  0.6049721634250907  0.0935540923063654  0.3135930840995447   T   T   T
  0.6059170452176011  0.1022813920961565  0.4500995414944672   T   T   T
  0.8578799960000012  0.3373199999999983  0.0606499980000024   F   F   F
  0.8567333260596092  0.3494925425691514  0.1946372082447133   T   T   T
  0.8542606202792212  0.3457247022708573  0.3300386000535237   T   T   T
  0.8433076132984983  0.3524978423138131  0.4645945458363512   T   T   T
  0.8578799960000012  0.1421200039999988  0.1080100009999967   F   F   F
  0.8560231150989664  0.1433976433285561  0.2457547193600303   T   T   T
  0.8553210075211241  0.1455732631316400  0.3810038801924466   T   T   T
  0.8540025778467278  0.1265820356435691  0.5148124038205407   T   T   T
  0.1078799960000012  0.8921200039999988  0.0000000000000000   F   F   F
  0.1073590725226177  0.8941359534054093  0.1272379319383316   T   T   T
  0.1055819091986254  0.8924005264701640  0.2622623967861505   T   T   T
  0.1066606849598853  0.8952487155101925  0.3990075092424746   T   T   T
  0.1078799960000012  0.5873200300000008  0.0473599990000011   F   F   F
  0.1069183102530060  0.5991495493022512  0.1769426420243167   T   T   T
  0.1051120251594329  0.5961748426394884  0.3151338589809101   T   T   T
  0.1078221898750289  0.5874474093782526  0.4474638984817154   T   T   T
  0.3578799960000012  0.8373200300000008  0.0606499980000024   F   F   F
  0.3570828834817941  0.8482506816791989  0.1946574751633684   T   T   T
  0.3520826036291315  0.8463153672539768  0.3305871056897960   T   T   T
  0.3630707023674373  0.8538563771303151  0.4684781359484815   T   T   T
  0.3578799960000012  0.6421200039999988  0.1080100009999967   F   F   F
  0.3558989925229656  0.6441485751348346  0.2454447927300156   T   T   T
  0.3621142121980048  0.6462895382442775  0.3838743705996134   T   T   T
  0.3708498147008013  0.6493647005586693  0.5170317382111739   T   T   T
  0.6078799960000012  0.8921200039999988  0.0000000000000000   F   F   F
  0.6073181005973787  0.8941745307631840  0.1271997806797807   T   T   T
  0.6060074022156521  0.8918464994716265  0.2624130105938160   T   T   T
  0.6019028408156821  0.8991531850524898  0.3980966618479313   T   T   T
  0.6078799960000012  0.5873200300000008  0.0473599990000011   F   F   F
  0.6068951017418787  0.5990198541814470  0.1769518915425662   T   T   T
  0.6055042470213379  0.5985334644737464  0.3142529839298103   T   T   T
  0.8578799960000012  0.8373200300000008  0.0606499980000024   F   F   F
  0.8561924800120908  0.8482127665271023  0.1946453078166361   T   T   T
  0.8581090947062903  0.8467200306518027  0.3307216407026232   T   T   T
  0.8424855830690544  0.8448221511260022  0.4658073285425355   T   T   T
  0.8578799960000012  0.6421200039999988  0.1080100009999967   F   F   F
  0.8562036818514963  0.6440317878343363  0.2454223121069219   T   T   T
  0.8474834198934146  0.6476795836626064  0.3841533433024016   T   T   T
  0.8391766886098956  0.6342658082519285  0.5137255297811031   T   T   T
  0.3515688612377990  0.3526991815131987  0.5259989464079728   T   T   T
  0.0780729299990418  0.8665733043155549  0.5372946995990365   T   T   T
  0.6986163451420253  0.8566846413305176  0.5511775892489945   T   T   T
  0.8555540150627139  0.3524333068699680  0.5262292631771923   T   T   T
 
  0.00000000E+00  0.00000000E+00  0.00000000E+00
  0.00000000E+00  0.00000000E+00  0.00000000E+00
  0.00000000E+00  0.00000000E+00  0.00000000E+00
  0.00000000E+00  0.00000000E+00  0.00000000E+00
  0.00000000E+00  0.00000000E+00  0.00000000E+00
  0.00000000E+00  0.00000000E+00  0.00000000E+00
  0.00000000E+00  0.00000000E+00  0.00000000E+00
  0.00000000E+00  0.00000000E+00  0.00000000E+00
  0.00000000E+00  0.00000000E+00  0.00000000E+00
  0.00000000E+00  0.00000000E+00  0.00000000E+00
  0.00000000E+00  0.00000000E+00  0.00000000E+00
  0.00000000E+00  0.00000000E+00  0.00000000E+00
  0.00000000E+00  0.00000000E+00  0.00000000E+00
  0.00000000E+00  0.00000000E+00  0.00000000E+00
  0.00000000E+00  0.00000000E+00  0.00000000E+00
  0.00000000E+00  0.00000000E+00  0.00000000E+00
  0.00000000E+00  0.00000000E+00  0.00000000E+00
  0.00000000E+00  0.00000000E+00  0.00000000E+00
  0.00000000E+00  0.00000000E+00  0.00000000E+00
  0.00000000E+00  0.00000000E+00  0.00000000E+00
  0.00000000E+00  0.00000000E+00  0.00000000E+00
  0.00000000E+00  0.00000000E+00  0.00000000E+00
  0.00000000E+00  0.00000000E+00  0.00000000E+00
  0.00000000E+00  0.00000000E+00  0.00000000E+00
  0.00000000E+00  0.00000000E+00  0.00000000E+00
  0.00000000E+00  0.00000000E+00  0.00000000E+00
  0.00000000E+00  0.00000000E+00  0.00000000E+00
  0.00000000E+00  0.00000000E+00  0.00000000E+00
  0.00000000E+00  0.00000000E+00  0.00000000E+00
  0.00000000E+00  0.00000000E+00  0.00000000E+00
  0.00000000E+00  0.00000000E+00  0.00000000E+00
  0.00000000E+00  0.00000000E+00  0.00000000E+00
  0.00000000E+00  0.00000000E+00  0.00000000E+00
  0.00000000E+00  0.00000000E+00  0.00000000E+00
  0.00000000E+00  0.00000000E+00  0.00000000E+00
  0.00000000E+00  0.00000000E+00  0.00000000E+00
  0.00000000E+00  0.00000000E+00  0.00000000E+00
  0.00000000E+00  0.00000000E+00  0.00000000E+00
  0.00000000E+00  0.00000000E+00  0.00000000E+00
  0.00000000E+00  0.00000000E+00  0.00000000E+00
  0.00000000E+00  0.00000000E+00  0.00000000E+00
  0.00000000E+00  0.00000000E+00  0.00000000E+00
  0.00000000E+00  0.00000000E+00  0.00000000E+00
  0.00000000E+00  0.00000000E+00  0.00000000E+00
  0.00000000E+00  0.00000000E+00  0.00000000E+00
  0.00000000E+00  0.00000000E+00  0.00000000E+00
  0.00000000E+00  0.00000000E+00  0.00000000E+00
  0.00000000E+00  0.00000000E+00  0.00000000E+00
  0.00000000E+00  0.00000000E+00  0.00000000E+00
  0.00000000E+00  0.00000000E+00  0.00000000E+00
  0.00000000E+00  0.00000000E+00  0.00000000E+00
  0.00000000E+00  0.00000000E+00  0.00000000E+00
  0.00000000E+00  0.00000000E+00  0.00000000E+00
  0.00000000E+00  0.00000000E+00  0.00000000E+00
  0.00000000E+00  0.00000000E+00  0.00000000E+00
  0.00000000E+00  0.00000000E+00  0.00000000E+00
  0.00000000E+00  0.00000000E+00  0.00000000E+00
  0.00000000E+00  0.00000000E+00  0.00000000E+00
  0.00000000E+00  0.00000000E+00  0.00000000E+00
  0.00000000E+00  0.00000000E+00  0.00000000E+00
  0.00000000E+00  0.00000000E+00  0.00000000E+00
  0.00000000E+00  0.00000000E+00  0.00000000E+00
  0.00000000E+00  0.00000000E+00  0.00000000E+00
  0.00000000E+00  0.00000000E+00  0.00000000E+00
  0.00000000E+00  0.00000000E+00  0.00000000E+00
  0.00000000E+00  0.00000000E+00  0.00000000E+00
  0.00000000E+00  0.00000000E+00  0.00000000E+00
  0.00000000E+00  0.00000000E+00  0.00000000E+00
  0.00000000E+00  0.00000000E+00  0.00000000E+00
  0.00000000E+00  0.00000000E+00  0.00000000E+00
  0.00000000E+00  0.00000000E+00  0.00000000E+00
  0.00000000E+00  0.00000000E+00  0.00000000E+00
  0.00000000E+00  0.00000000E+00  0.00000000E+00
  0.00000000E+00  0.00000000E+00  0.00000000E+00
  0.00000000E+00  0.00000000E+00  0.00000000E+00
  0.00000000E+00  0.00000000E+00  0.00000000E+00
  0.00000000E+00  0.00000000E+00  0.00000000E+00
  0.00000000E+00  0.00000000E+00  0.00000000E+00
  0.00000000E+00  0.00000000E+00  0.00000000E+00
  0.00000000E+00  0.00000000E+00  0.00000000E+00
  0.00000000E+00  0.00000000E+00  0.00000000E+00
  0.00000000E+00  0.00000000E+00  0.00000000E+00
  0.00000000E+00  0.00000000E+00  0.00000000E+00
  0.00000000E+00  0.00000000E+00  0.00000000E+00
  0.00000000E+00  0.00000000E+00  0.00000000E+00
  0.00000000E+00  0.00000000E+00  0.00000000E+00
  0.00000000E+00  0.00000000E+00  0.00000000E+00
  0.00000000E+00  0.00000000E+00  0.00000000E+00
  0.00000000E+00  0.00000000E+00  0.00000000E+00
  0.00000000E+00  0.00000000E+00  0.00000000E+00
  0.00000000E+00  0.00000000E+00  0.00000000E+00
  0.00000000E+00  0.00000000E+00  0.00000000E+00
  0.00000000E+00  0.00000000E+00  0.00000000E+00
  0.00000000E+00  0.00000000E+00  0.00000000E+00
  0.00000000E+00  0.00000000E+00  0.00000000E+00
  0.00000000E+00  0.00000000E+00  0.00000000E+00
  0.00000000E+00  0.00000000E+00  0.00000000E+00
  0.00000000E+00  0.00000000E+00  0.00000000E+00
  0.00000000E+00  0.00000000E+00  0.00000000E+00
