CONTCAR                                 
   1.00000000000000     
     5.9100794585816399    0.0005365260770011   -0.0024263675833997
    -0.0005541476265776    9.1387512248633893    0.0056011506427500
     0.0273875963786213    0.1069465380874703   34.1780633347770788
   Ti   O    H 
    32    68     1
Selective dynamics
Direct
  0.1078799960000012  0.2397200019999985  0.0843300000000013   F   F   F
  0.1071821857310436  0.2500577381368331  0.2222257541362114   T   T   T
  0.1073306403136590  0.2227742480486697  0.3564469360910408   T   T   T
  0.1073678019849135  0.2403996800990964  0.5001134961352792   T   T   T
  0.3578799960000012  0.4897199870000009  0.0236799999999988   F   F   F
  0.3570325210691276  0.4932176177599399  0.1521518298421027   T   T   T
  0.3547152318166432  0.4937113625425353  0.2932831494962090   T   T   T
  0.3392831535008159  0.4832331202303302  0.4233376946738915   T   T   T
  0.6078799960000012  0.2397200019999985  0.0843300000000013   F   F   F
  0.6071873678033558  0.2507013579948831  0.2221141389446184   T   T   T
  0.6073573131845641  0.2296964505526743  0.3583827625022608   T   T   T
  0.6074107162059196  0.2451351543719536  0.5007350362277178   T   T   T
  0.8578799960000012  0.4897199870000009  0.0236799999999988   F   F   F
  0.8578284188066170  0.4932053470579230  0.1521485810260357   T   T   T
  0.8545251861911127  0.4935954938765247  0.2932535796030176   T   T   T
  0.8752177260578800  0.4835765758832586  0.4233931513045256   T   T   T
  0.1078799960000012  0.7397199870000009  0.0843300000000013   F   F   F
  0.1053577369566810  0.7376677454878918  0.2210779709870376   T   T   T
  0.1073088969392678  0.7581597682108812  0.3612599998507504   T   T   T
  0.1072653350499652  0.7125499767767658  0.4995416703508030   T   T   T
  0.3578799960000012  0.9897199870000009  0.0236799999999988   F   F   F
  0.3515730053951246  0.9933907368552167  0.1538654622259579   T   T   T
  0.3590100360571504  0.9908609839440129  0.2876968580402518   T   T   T
  0.3585965534223797  0.9861835787336434  0.4348881105064069   T   T   T
  0.6078799960000012  0.7397199870000009  0.0843300000000013   F   F   F
  0.6053645893587158  0.7363791488495716  0.2206428664488100   T   T   T
  0.6072610828693852  0.7560235971270947  0.3615207606686637   T   T   T
  0.6078860186165022  0.7740778808155980  0.5141484100967686   T   T   T
  0.8578799960000012  0.9897199870000009  0.0236799999999988   F   F   F
  0.8514932056623946  0.9934005108751183  0.1538689830395501   T   T   T
  0.8557102451479749  0.9909343294837827  0.2877297195872540   T   T   T
  0.8562553383152252  0.9861659915232263  0.4348861719209227   T   T   T
  0.1078799960000012  0.3921200039999988  0.0000000000000000   F   F   F
  0.1078405156627790  0.3944561082679580  0.1276065197581539   T   T   T
  0.1080054797148608  0.3942287715013927  0.2644804938136219   T   T   T
  0.1070640830364759  0.3890846432767974  0.3990638876451992   T   T   T
  0.1078799960000012  0.0873199999999983  0.0473599990000011   F   F   F
  0.1083897940523099  0.1007832801424522  0.1787539627235147   T   T   T
  0.1075692070873122  0.0908565688461868  0.3151312203445166   T   T   T
  0.1072755173060273  0.1051928107710791  0.4548420335063719   T   T   T
  0.3578799960000012  0.3373199999999983  0.0606499980000024   F   F   F
  0.3578081999961394  0.3493217853182046  0.1959374132243704   T   T   T
  0.3582890131866290  0.3441262640802831  0.3327915005831576   T   T   T
  0.3688289834119390  0.3534502039083369  0.4681489031155133   T   T   T
  0.3578799960000012  0.1421200039999988  0.1080100009999967   F   F   F
  0.3580672335123623  0.1424671959321269  0.2476257295170733   T   T   T
  0.3569787765956898  0.1452951282103041  0.3846566523836830   T   T   T
  0.3551790390565217  0.1352199944934301  0.5208559620396652   T   T   T
  0.6078799960000012  0.3921200039999988  0.0000000000000000   F   F   F
  0.6078571585205992  0.3945730941175579  0.1276204093612890   T   T   T
  0.6079650851040018  0.3940210066305948  0.2644740039942345   T   T   T
  0.6075181286711829  0.4022464986405576  0.4031731268614746   T   T   T
  0.6078799960000012  0.0873199999999983  0.0473599990000011   F   F   F
  0.6083959047779911  0.1008313950674881  0.1787237489585424   T   T   T
  0.6075655890466817  0.0916664351028120  0.3160704937798066   T   T   T
  0.6073963228527827  0.1025828015285464  0.4553275078732154   T   T   T
  0.8578799960000012  0.3373199999999983  0.0606499980000024   F   F   F
  0.8580287043588901  0.3493270510073131  0.1959404656906983   T   T   T
  0.8566534390618762  0.3440677630212573  0.3327777659112096   T   T   T
  0.8448511742770598  0.3542644278498658  0.4682642898820933   T   T   T
  0.8578799960000012  0.1421200039999988  0.1080100009999967   F   F   F
  0.8577397180629911  0.1424692933722612  0.2476285374270496   T   T   T
  0.8576807029393707  0.1451936920500153  0.3846511106619101   T   T   T
  0.8589641895768166  0.1343519223847850  0.5206127209547606   T   T   T
  0.1078799960000012  0.8921200039999988  0.0000000000000000   F   F   F
  0.1081638545040441  0.8939236080014336  0.1277906086882095   T   T   T
  0.1076488534034456  0.8908554199893891  0.2644954527437273   T   T   T
  0.1074024693924312  0.8943520256775254  0.4036194796375913   T   T   T
  0.1078799960000012  0.5873200300000008  0.0473599990000011   F   F   F
  0.1078226214014397  0.5988784524477413  0.1778844606708599   T   T   T
  0.1073270560205779  0.5956158363932481  0.3180197829057994   T   T   T
  0.1076558120056987  0.5878282134162695  0.4512669801466814   T   T   T
  0.3578799960000012  0.8373200300000008  0.0606499980000024   F   F   F
  0.3583241289206122  0.8477734170271600  0.1960407949056376   T   T   T
  0.3547003187481113  0.8467301562760451  0.3340904802582383   T   T   T
  0.3604778088140874  0.8520785318064332  0.4735353268999050   T   T   T
  0.3578799960000012  0.6421200039999988  0.1080100009999967   F   F   F
  0.3572672370190755  0.6433418419081955  0.2472727520422813   T   T   T
  0.3648679020714545  0.6466995450393660  0.3877441969096644   T   T   T
  0.3574126529321252  0.6402409073408784  0.5217832983341847   T   T   T
  0.6078799960000012  0.8921200039999988  0.0000000000000000   F   F   F
  0.6081562778283899  0.8939657485378870  0.1277598217670620   T   T   T
  0.6076595643470312  0.8903596051755562  0.2646494100420471   T   T   T
  0.6074413960065018  0.8971071084050750  0.4031599100498445   T   T   T
  0.6078799960000012  0.5873200300000008  0.0473599990000011   F   F   F
  0.6078063284085329  0.5987291461514629  0.1779106778281189   T   T   T
  0.6073699746059877  0.5976836814448553  0.3171492360833575   T   T   T
  0.8578799960000012  0.8373200300000008  0.0606499980000024   F   F   F
  0.8575109921731426  0.8477696666322481  0.1960452406287511   T   T   T
  0.8602469618645473  0.8466741183806240  0.3340781266786600   T   T   T
  0.8548837155132899  0.8518934968462573  0.4735626115395062   T   T   T
  0.8578799960000012  0.6421200039999988  0.1080100009999967   F   F   F
  0.8576906594321688  0.6433157954527403  0.2472688284312822   T   T   T
  0.8498998238392877  0.6468883774340306  0.3877990816912609   T   T   T
  0.8579780913624806  0.6399578083795435  0.5219123871856951   T   T   T
  0.3553870272171994  0.3625074405646119  0.5301572453433174   T   T   T
  0.1105393970179871  0.8840269485788150  0.5442317926191802   T   T   T
  0.6073848508981236  0.8859055962958998  0.5525776065980618   T   T   T
  0.8595007415963475  0.3611256463341152  0.5303907192683200   T   T   T
  0.1207748501469058  0.8298670825915043  0.5807983477186446   T   T   T
  0.1387458745171300  0.9190969998572535  0.5968704197882486   T   T   T
 
  0.00000000E+00  0.00000000E+00  0.00000000E+00
  0.00000000E+00  0.00000000E+00  0.00000000E+00
  0.00000000E+00  0.00000000E+00  0.00000000E+00
  0.00000000E+00  0.00000000E+00  0.00000000E+00
  0.00000000E+00  0.00000000E+00  0.00000000E+00
  0.00000000E+00  0.00000000E+00  0.00000000E+00
  0.00000000E+00  0.00000000E+00  0.00000000E+00
  0.00000000E+00  0.00000000E+00  0.00000000E+00
  0.00000000E+00  0.00000000E+00  0.00000000E+00
  0.00000000E+00  0.00000000E+00  0.00000000E+00
  0.00000000E+00  0.00000000E+00  0.00000000E+00
  0.00000000E+00  0.00000000E+00  0.00000000E+00
  0.00000000E+00  0.00000000E+00  0.00000000E+00
  0.00000000E+00  0.00000000E+00  0.00000000E+00
  0.00000000E+00  0.00000000E+00  0.00000000E+00
  0.00000000E+00  0.00000000E+00  0.00000000E+00
  0.00000000E+00  0.00000000E+00  0.00000000E+00
  0.00000000E+00  0.00000000E+00  0.00000000E+00
  0.00000000E+00  0.00000000E+00  0.00000000E+00
  0.00000000E+00  0.00000000E+00  0.00000000E+00
  0.00000000E+00  0.00000000E+00  0.00000000E+00
  0.00000000E+00  0.00000000E+00  0.00000000E+00
  0.00000000E+00  0.00000000E+00  0.00000000E+00
  0.00000000E+00  0.00000000E+00  0.00000000E+00
  0.00000000E+00  0.00000000E+00  0.00000000E+00
  0.00000000E+00  0.00000000E+00  0.00000000E+00
  0.00000000E+00  0.00000000E+00  0.00000000E+00
  0.00000000E+00  0.00000000E+00  0.00000000E+00
  0.00000000E+00  0.00000000E+00  0.00000000E+00
  0.00000000E+00  0.00000000E+00  0.00000000E+00
  0.00000000E+00  0.00000000E+00  0.00000000E+00
  0.00000000E+00  0.00000000E+00  0.00000000E+00
  0.00000000E+00  0.00000000E+00  0.00000000E+00
  0.00000000E+00  0.00000000E+00  0.00000000E+00
  0.00000000E+00  0.00000000E+00  0.00000000E+00
  0.00000000E+00  0.00000000E+00  0.00000000E+00
  0.00000000E+00  0.00000000E+00  0.00000000E+00
  0.00000000E+00  0.00000000E+00  0.00000000E+00
  0.00000000E+00  0.00000000E+00  0.00000000E+00
  0.00000000E+00  0.00000000E+00  0.00000000E+00
  0.00000000E+00  0.00000000E+00  0.00000000E+00
  0.00000000E+00  0.00000000E+00  0.00000000E+00
  0.00000000E+00  0.00000000E+00  0.00000000E+00
  0.00000000E+00  0.00000000E+00  0.00000000E+00
  0.00000000E+00  0.00000000E+00  0.00000000E+00
  0.00000000E+00  0.00000000E+00  0.00000000E+00
  0.00000000E+00  0.00000000E+00  0.00000000E+00
  0.00000000E+00  0.00000000E+00  0.00000000E+00
  0.00000000E+00  0.00000000E+00  0.00000000E+00
  0.00000000E+00  0.00000000E+00  0.00000000E+00
  0.00000000E+00  0.00000000E+00  0.00000000E+00
  0.00000000E+00  0.00000000E+00  0.00000000E+00
  0.00000000E+00  0.00000000E+00  0.00000000E+00
  0.00000000E+00  0.00000000E+00  0.00000000E+00
  0.00000000E+00  0.00000000E+00  0.00000000E+00
  0.00000000E+00  0.00000000E+00  0.00000000E+00
  0.00000000E+00  0.00000000E+00  0.00000000E+00
  0.00000000E+00  0.00000000E+00  0.00000000E+00
  0.00000000E+00  0.00000000E+00  0.00000000E+00
  0.00000000E+00  0.00000000E+00  0.00000000E+00
  0.00000000E+00  0.00000000E+00  0.00000000E+00
  0.00000000E+00  0.00000000E+00  0.00000000E+00
  0.00000000E+00  0.00000000E+00  0.00000000E+00
  0.00000000E+00  0.00000000E+00  0.00000000E+00
  0.00000000E+00  0.00000000E+00  0.00000000E+00
  0.00000000E+00  0.00000000E+00  0.00000000E+00
  0.00000000E+00  0.00000000E+00  0.00000000E+00
  0.00000000E+00  0.00000000E+00  0.00000000E+00
  0.00000000E+00  0.00000000E+00  0.00000000E+00
  0.00000000E+00  0.00000000E+00  0.00000000E+00
  0.00000000E+00  0.00000000E+00  0.00000000E+00
  0.00000000E+00  0.00000000E+00  0.00000000E+00
  0.00000000E+00  0.00000000E+00  0.00000000E+00
  0.00000000E+00  0.00000000E+00  0.00000000E+00
  0.00000000E+00  0.00000000E+00  0.00000000E+00
  0.00000000E+00  0.00000000E+00  0.00000000E+00
  0.00000000E+00  0.00000000E+00  0.00000000E+00
  0.00000000E+00  0.00000000E+00  0.00000000E+00
  0.00000000E+00  0.00000000E+00  0.00000000E+00
  0.00000000E+00  0.00000000E+00  0.00000000E+00
  0.00000000E+00  0.00000000E+00  0.00000000E+00
  0.00000000E+00  0.00000000E+00  0.00000000E+00
  0.00000000E+00  0.00000000E+00  0.00000000E+00
  0.00000000E+00  0.00000000E+00  0.00000000E+00
  0.00000000E+00  0.00000000E+00  0.00000000E+00
  0.00000000E+00  0.00000000E+00  0.00000000E+00
  0.00000000E+00  0.00000000E+00  0.00000000E+00
  0.00000000E+00  0.00000000E+00  0.00000000E+00
  0.00000000E+00  0.00000000E+00  0.00000000E+00
  0.00000000E+00  0.00000000E+00  0.00000000E+00
  0.00000000E+00  0.00000000E+00  0.00000000E+00
  0.00000000E+00  0.00000000E+00  0.00000000E+00
  0.00000000E+00  0.00000000E+00  0.00000000E+00
  0.00000000E+00  0.00000000E+00  0.00000000E+00
  0.00000000E+00  0.00000000E+00  0.00000000E+00
  0.00000000E+00  0.00000000E+00  0.00000000E+00
  0.00000000E+00  0.00000000E+00  0.00000000E+00
  0.00000000E+00  0.00000000E+00  0.00000000E+00
  0.00000000E+00  0.00000000E+00  0.00000000E+00
  0.00000000E+00  0.00000000E+00  0.00000000E+00
  0.00000000E+00  0.00000000E+00  0.00000000E+00
