CONTCAR                                 
   1.00000000000000     
     5.8951321358237969    0.0027920967573366   -0.0013606858205574
     0.0006808834167432    9.1503203240381499   -0.0242738415511805
     0.0431219002360849   -0.0531977133468256   34.5969975409277879
   Ti   O 
    32    67
Selective dynamics
Direct
  0.1078799960000012  0.2397200019999985  0.0843300000000013   F   F   F
  0.1051619783016105  0.2452139297925982  0.2197406971741223   T   T   T
  0.1188355951427149  0.2485941385985430  0.3538048689322200   T   T   T
  0.1023631815528522  0.2332573649779659  0.4951335642018183   T   T   T
  0.3578799960000012  0.4897199870000009  0.0236799999999988   F   F   F
  0.3560761045055948  0.4949277299408742  0.1522972281256946   T   T   T
  0.3547662804125628  0.5046917516880669  0.2852110053658516   T   T   T
  0.3484985066668991  0.5001573368540939  0.4242413502060697   T   T   T
  0.6078799960000012  0.2397200019999985  0.0843300000000013   F   F   F
  0.6052543381266835  0.2463581662127685  0.2193771085060695   T   T   T
  0.5940560331263353  0.2546610047382307  0.3556792315946010   T   T   T
  0.6050370834124271  0.2347911263997391  0.4947182179444465   T   T   T
  0.8578799960000012  0.4897199870000009  0.0236799999999988   F   F   F
  0.8571584811764703  0.4932106962914062  0.1518939712796082   T   T   T
  0.8544329891413831  0.4928264450366973  0.2890457854335383   T   T   T
  0.8595095421945746  0.4970635666862725  0.4233896966356287   T   T   T
  0.1078799960000012  0.7397199870000009  0.0843300000000013   F   F   F
  0.1013190836882179  0.7478375662619212  0.2195492553323349   T   T   T
  0.1047914486889856  0.7486254652929822  0.3552450341987841   T   T   T
  0.1077940209829884  0.7291124905820122  0.5043871930456084   T   T   T
  0.3578799960000012  0.9897199870000009  0.0236799999999988   F   F   F
  0.3568564165149928  0.9932878057249512  0.1525120318375754   T   T   T
  0.3549866985389714  0.9930606884947079  0.2868967346177593   T   T   T
  0.3558876050558535  0.9705519592210899  0.4327190857848167   T   T   T
  0.6078799960000012  0.7397199870000009  0.0843300000000013   F   F   F
  0.6096042394563814  0.7463958424089271  0.2188470743102428   T   T   T
  0.6043785129760539  0.7452320327566623  0.3561798319967716   T   T   T
  0.5799075214570294  0.7030364449001151  0.4985369403647781   T   T   T
  0.8578799960000012  0.9897199870000009  0.0236799999999988   F   F   F
  0.8569818637171853  0.9965241087818877  0.1513048719754030   T   T   T
  0.8509026111616625  1.0008500075872881  0.2886530070259076   T   T   T
  0.8558397748071677  1.0150863647631632  0.4172754600642664   T   T   T
  0.1078799960000012  0.3921200039999988  0.0000000000000000   F   F   F
  0.1071578784027376  0.3946901201486713  0.1269997503170291   T   T   T
  0.1064757329566068  0.3984805109577016  0.2617013471498567   T   T   T
  0.1059454246565263  0.3974583343772146  0.3972240561469301   T   T   T
  0.1078799960000012  0.0873199999999983  0.0473599990000011   F   F   F
  0.1065045236713062  0.1017579585074195  0.1770944105031165   T   T   T
  0.1052386468805385  0.1009724557184816  0.3127876697726944   T   T   T
  0.0989151841846164  0.0861811333043269  0.4509953067796666   T   T   T
  0.3578799960000012  0.3373199999999983  0.0606499980000024   F   F   F
  0.3567657459219225  0.3502318371086537  0.1942393874965557   T   T   T
  0.3560160885880589  0.3523714584154171  0.3289050711847461   T   T   T
  0.3559886001845790  0.3392539031660597  0.4627900890882005   T   T   T
  0.3578799960000012  0.1421200039999988  0.1080100009999967   F   F   F
  0.3563268054293139  0.1466112599862446  0.2452521063040626   T   T   T
  0.3549762248277835  0.1510737864570408  0.3796946761637466   T   T   T
  0.3563358705136461  0.1223962562040051  0.5140802943250989   T   T   T
  0.6078799960000012  0.3921200039999988  0.0000000000000000   F   F   F
  0.6077400772303748  0.3948138373638537  0.1270062965633817   T   T   T
  0.6058406893121321  0.3984019659896926  0.2617268800918246   T   T   T
  0.6056746811917235  0.3970774734539364  0.3971623944197602   T   T   T
  0.6078799960000012  0.0873199999999983  0.0473599990000011   F   F   F
  0.6074603604279389  0.1017408324046293  0.1771043265934074   T   T   T
  0.6067101383774541  0.1005024679604638  0.3128383253636051   T   T   T
  0.6124471911878839  0.0868627649660928  0.4508408848381096   T   T   T
  0.8578799960000012  0.3373199999999983  0.0606499980000024   F   F   F
  0.8566061829544934  0.3505216585716311  0.1943394951616314   T   T   T
  0.8557358110219067  0.3520005053082149  0.3291239797417323   T   T   T
  0.8563383486776917  0.3370962560743188  0.4624204672688783   T   T   T
  0.8578799960000012  0.1421200039999988  0.1080100009999967   F   F   F
  0.8564598901324616  0.1463824200611582  0.2451707038873444   T   T   T
  0.8562110914581628  0.1485429100651737  0.3795903639346801   T   T   T
  0.8542208718286904  0.1281424266186906  0.5160660545050624   T   T   T
  0.1078799960000012  0.8921200039999988  0.0000000000000000   F   F   F
  0.1069927042589959  0.8951213394009204  0.1269864365330731   T   T   T
  0.1072464345230721  0.8956241700500731  0.2621645553901187   T   T   T
  0.1030681159956699  0.8894736721871326  0.4010517517808628   T   T   T
  0.1078799960000012  0.5873200300000008  0.0473599990000011   F   F   F
  0.1075167871738023  0.6014960555338125  0.1770394696687933   T   T   T
  0.1069755571312450  0.6023690805103792  0.3130237636446678   T   T   T
  0.1030125491500325  0.5985086290137378  0.4496470898076428   T   T   T
  0.3578799960000012  0.8373200300000008  0.0606499980000024   F   F   F
  0.3569658787347353  0.8516094869123179  0.1941658381649332   T   T   T
  0.3555673495159527  0.8526254076254598  0.3310217393918382   T   T   T
  0.3591332533665052  0.8334816583550620  0.4709968286238498   T   T   T
  0.3578799960000012  0.6421200039999988  0.1080100009999967   F   F   F
  0.3566212209321745  0.6474476718582203  0.2447111955837228   T   T   T
  0.3562023100955913  0.6461547988574058  0.3812013606156238   T   T   T
  0.3472254071766581  0.6383585062854888  0.5272707992284535   T   T   T
  0.6078799960000012  0.8921200039999988  0.0000000000000000   F   F   F
  0.6078495354949411  0.8951714007555593  0.1269657461284582   T   T   T
  0.6060110704481331  0.8958083168509883  0.2622580492808669   T   T   T
  0.6089248231493223  0.8899633753349754  0.4008987324734236   T   T   T
  0.6078799960000012  0.5873200300000008  0.0473599990000011   F   F   F
  0.6065680214898892  0.6016853218708315  0.1770375349501498   T   T   T
  0.6048825977436963  0.6025312688508021  0.3129747288840283   T   T   T
  0.6071867705086251  0.5968628214054007  0.4496753556034748   T   T   T
  0.8578799960000012  0.8373200300000008  0.0606499980000024   F   F   F
  0.8565932320114922  0.8515517930799963  0.1942022514814307   T   T   T
  0.8564325358545229  0.8528141810847024  0.3310417845178077   T   T   T
  0.8578799960000012  0.6421200039999988  0.1080100009999967   F   F   F
  0.8562195710879257  0.6482337022833822  0.2446477761228769   T   T   T
  0.8553938386079356  0.6453275680429340  0.3808274612595655   T   T   T
  0.8494627358056772  0.6217386846530429  0.5162447842347370   T   T   T
  0.3524549747825000  0.3477428317640226  0.5244326565133385   T   T   T
  0.0681521704518881  0.8962849595136330  0.5284685931448331   T   T   T
  0.7229279819532408  0.8533934229947142  0.5255316120998772   T   T   T
  0.8516615462163972  0.3536227296359324  0.5237534881857104   T   T   T
 
  0.00000000E+00  0.00000000E+00  0.00000000E+00
  0.00000000E+00  0.00000000E+00  0.00000000E+00
  0.00000000E+00  0.00000000E+00  0.00000000E+00
  0.00000000E+00  0.00000000E+00  0.00000000E+00
  0.00000000E+00  0.00000000E+00  0.00000000E+00
  0.00000000E+00  0.00000000E+00  0.00000000E+00
  0.00000000E+00  0.00000000E+00  0.00000000E+00
  0.00000000E+00  0.00000000E+00  0.00000000E+00
  0.00000000E+00  0.00000000E+00  0.00000000E+00
  0.00000000E+00  0.00000000E+00  0.00000000E+00
  0.00000000E+00  0.00000000E+00  0.00000000E+00
  0.00000000E+00  0.00000000E+00  0.00000000E+00
  0.00000000E+00  0.00000000E+00  0.00000000E+00
  0.00000000E+00  0.00000000E+00  0.00000000E+00
  0.00000000E+00  0.00000000E+00  0.00000000E+00
  0.00000000E+00  0.00000000E+00  0.00000000E+00
  0.00000000E+00  0.00000000E+00  0.00000000E+00
  0.00000000E+00  0.00000000E+00  0.00000000E+00
  0.00000000E+00  0.00000000E+00  0.00000000E+00
  0.00000000E+00  0.00000000E+00  0.00000000E+00
  0.00000000E+00  0.00000000E+00  0.00000000E+00
  0.00000000E+00  0.00000000E+00  0.00000000E+00
  0.00000000E+00  0.00000000E+00  0.00000000E+00
  0.00000000E+00  0.00000000E+00  0.00000000E+00
  0.00000000E+00  0.00000000E+00  0.00000000E+00
  0.00000000E+00  0.00000000E+00  0.00000000E+00
  0.00000000E+00  0.00000000E+00  0.00000000E+00
  0.00000000E+00  0.00000000E+00  0.00000000E+00
  0.00000000E+00  0.00000000E+00  0.00000000E+00
  0.00000000E+00  0.00000000E+00  0.00000000E+00
  0.00000000E+00  0.00000000E+00  0.00000000E+00
  0.00000000E+00  0.00000000E+00  0.00000000E+00
  0.00000000E+00  0.00000000E+00  0.00000000E+00
  0.00000000E+00  0.00000000E+00  0.00000000E+00
  0.00000000E+00  0.00000000E+00  0.00000000E+00
  0.00000000E+00  0.00000000E+00  0.00000000E+00
  0.00000000E+00  0.00000000E+00  0.00000000E+00
  0.00000000E+00  0.00000000E+00  0.00000000E+00
  0.00000000E+00  0.00000000E+00  0.00000000E+00
  0.00000000E+00  0.00000000E+00  0.00000000E+00
  0.00000000E+00  0.00000000E+00  0.00000000E+00
  0.00000000E+00  0.00000000E+00  0.00000000E+00
  0.00000000E+00  0.00000000E+00  0.00000000E+00
  0.00000000E+00  0.00000000E+00  0.00000000E+00
  0.00000000E+00  0.00000000E+00  0.00000000E+00
  0.00000000E+00  0.00000000E+00  0.00000000E+00
  0.00000000E+00  0.00000000E+00  0.00000000E+00
  0.00000000E+00  0.00000000E+00  0.00000000E+00
  0.00000000E+00  0.00000000E+00  0.00000000E+00
  0.00000000E+00  0.00000000E+00  0.00000000E+00
  0.00000000E+00  0.00000000E+00  0.00000000E+00
  0.00000000E+00  0.00000000E+00  0.00000000E+00
  0.00000000E+00  0.00000000E+00  0.00000000E+00
  0.00000000E+00  0.00000000E+00  0.00000000E+00
  0.00000000E+00  0.00000000E+00  0.00000000E+00
  0.00000000E+00  0.00000000E+00  0.00000000E+00
  0.00000000E+00  0.00000000E+00  0.00000000E+00
  0.00000000E+00  0.00000000E+00  0.00000000E+00
  0.00000000E+00  0.00000000E+00  0.00000000E+00
  0.00000000E+00  0.00000000E+00  0.00000000E+00
  0.00000000E+00  0.00000000E+00  0.00000000E+00
  0.00000000E+00  0.00000000E+00  0.00000000E+00
  0.00000000E+00  0.00000000E+00  0.00000000E+00
  0.00000000E+00  0.00000000E+00  0.00000000E+00
  0.00000000E+00  0.00000000E+00  0.00000000E+00
  0.00000000E+00  0.00000000E+00  0.00000000E+00
  0.00000000E+00  0.00000000E+00  0.00000000E+00
  0.00000000E+00  0.00000000E+00  0.00000000E+00
  0.00000000E+00  0.00000000E+00  0.00000000E+00
  0.00000000E+00  0.00000000E+00  0.00000000E+00
  0.00000000E+00  0.00000000E+00  0.00000000E+00
  0.00000000E+00  0.00000000E+00  0.00000000E+00
  0.00000000E+00  0.00000000E+00  0.00000000E+00
  0.00000000E+00  0.00000000E+00  0.00000000E+00
  0.00000000E+00  0.00000000E+00  0.00000000E+00
  0.00000000E+00  0.00000000E+00  0.00000000E+00
  0.00000000E+00  0.00000000E+00  0.00000000E+00
  0.00000000E+00  0.00000000E+00  0.00000000E+00
  0.00000000E+00  0.00000000E+00  0.00000000E+00
  0.00000000E+00  0.00000000E+00  0.00000000E+00
  0.00000000E+00  0.00000000E+00  0.00000000E+00
  0.00000000E+00  0.00000000E+00  0.00000000E+00
  0.00000000E+00  0.00000000E+00  0.00000000E+00
  0.00000000E+00  0.00000000E+00  0.00000000E+00
  0.00000000E+00  0.00000000E+00  0.00000000E+00
  0.00000000E+00  0.00000000E+00  0.00000000E+00
  0.00000000E+00  0.00000000E+00  0.00000000E+00
  0.00000000E+00  0.00000000E+00  0.00000000E+00
  0.00000000E+00  0.00000000E+00  0.00000000E+00
  0.00000000E+00  0.00000000E+00  0.00000000E+00
  0.00000000E+00  0.00000000E+00  0.00000000E+00
  0.00000000E+00  0.00000000E+00  0.00000000E+00
  0.00000000E+00  0.00000000E+00  0.00000000E+00
  0.00000000E+00  0.00000000E+00  0.00000000E+00
  0.00000000E+00  0.00000000E+00  0.00000000E+00
  0.00000000E+00  0.00000000E+00  0.00000000E+00
  0.00000000E+00  0.00000000E+00  0.00000000E+00
  0.00000000E+00  0.00000000E+00  0.00000000E+00
  0.00000000E+00  0.00000000E+00  0.00000000E+00
