TiO2_rutile\(0\1\0)                     
   1.00000000000000     
     5.8956846531121725    0.0001585116891828    0.0022872399270921
    -0.0001565675433800    9.1395200291032559   -0.0379766102341850
     0.0203675303663253   -0.1349035830945538   34.5281631373329532
   Ti   O 
    32    67
Selective dynamics
Direct
  0.1078799960000012  0.2397200019999985  0.0843300000000013   F   F   F
  0.1170317509831469  0.2538490026655548  0.2190587268635398   T   T   T
  0.1046105211829902  0.2452233884810586  0.3591315713812254   T   T   T
  0.1169706395897380  0.2253739129510783  0.5023334104355716   T   T   T
  0.3578799960000012  0.4897199870000009  0.0236799999999988   F   F   F
  0.3573443552448847  0.5017789941320869  0.1505643977201154   T   T   T
  0.3564057583674294  0.4954998925578534  0.2907781160280444   T   T   T
  0.3556179683066376  0.4699651603461075  0.4319624910561535   T   T   T
  0.6078799960000012  0.2397200019999985  0.0843300000000013   F   F   F
  0.5962925094095367  0.2536183584417777  0.2191351156026397   T   T   T
  0.6074297752787204  0.2449439924596036  0.3591182770480761   T   T   T
  0.5942990724452076  0.2261364493522522  0.5022990770964642   T   T   T
  0.8578799960000012  0.4897199870000009  0.0236799999999988   F   F   F
  0.8572858754994179  0.4953249224572023  0.1532471824756480   T   T   T
  0.8564240817261363  0.4948624316138591  0.2904063054228178   T   T   T
  0.8554881295733511  0.4786192391261411  0.4322472863632958   T   T   T
  0.1078799960000012  0.7397199870000009  0.0843300000000013   F   F   F
  0.1064767625334029  0.7456362998098403  0.2210832931726326   T   T   T
  0.1220535721108645  0.7297812866216443  0.3631122267841472   T   T   T
  0.1064534539325260  0.7380215215541420  0.4971615359593315   T   T   T
  0.3578799960000012  0.9897199870000009  0.0236799999999988   F   F   F
  0.3573811671236098  0.9923171184019293  0.1528525814142455   T   T   T
  0.3562175178777276  0.9824163454242248  0.2942195742132027   T   T   T
  0.3556231090325401  0.9922034322708039  0.4286834859380060   T   T   T
  0.6078799960000012  0.7397199870000009  0.0843300000000013   F   F   F
  0.6062354355397680  0.7456513150801334  0.2211160387972689   T   T   T
  0.5899456145039376  0.7301070599218026  0.3629904415509501   T   T   T
  0.6020434500120023  0.7377267221639499  0.4978504357337383   T   T   T
  0.8578799960000012  0.9897199870000009  0.0236799999999988   F   F   F
  0.8573423130748317  0.9957943539201862  0.1535403222886258   T   T   T
  0.8564648876959454  1.0201169573135378  0.2820917133367423   T   T   T
  0.8553456633454041  0.9880402703708050  0.4292186031009382   T   T   T
  0.1078799960000012  0.3921200039999988  0.0000000000000000   F   F   F
  0.1081362316209428  0.3964987733662038  0.1274354525898733   T   T   T
  0.1087505815363678  0.4027910180164034  0.2632328605386859   T   T   T
  0.1030454339690363  0.3898556616213095  0.4003762994064862   T   T   T
  0.1078799960000012  0.0873199999999983  0.0473599990000011   F   F   F
  0.1064232923121438  0.1066551190833439  0.1776463088621773   T   T   T
  0.0998031657614340  0.0892324722362114  0.3154684675251494   T   T   T
  0.1070256881819588  0.0953059540305110  0.4502068036819996   T   T   T
  0.3578799960000012  0.3373199999999983  0.0606499980000024   F   F   F
  0.3570695082018852  0.3573427738193465  0.1948253930614393   T   T   T
  0.3562208647481212  0.3521792879739601  0.3305978912442093   T   T   T
  0.3546142762945706  0.3314404790130761  0.4687452918073733   T   T   T
  0.3578799960000012  0.1421200039999988  0.1080100009999967   F   F   F
  0.3567686149193741  0.1537683140660991  0.2454488601588833   T   T   T
  0.3559039529408189  0.1454501669992845  0.3814235474936455   T   T   T
  0.3574706905381237  0.0854355790590551  0.5126112590125566   T   T   T
  0.6078799960000012  0.3921200039999988  0.0000000000000000   F   F   F
  0.6069640856657860  0.3965004088703679  0.1274363251906286   T   T   T
  0.6044801003817930  0.4027892487565608  0.2632279147624636   T   T   T
  0.6084471724529154  0.3904402966659214  0.4003968073127842   T   T   T
  0.6078799960000012  0.0873199999999983  0.0473599990000011   F   F   F
  0.6081005496128683  0.1066536823800825  0.1776445983557125   T   T   T
  0.6126716161173386  0.0892533165975881  0.3154823702430246   T   T   T
  0.6038825179714282  0.0960536863281486  0.4500008230624372   T   T   T
  0.8578799960000012  0.3373199999999983  0.0606499980000024   F   F   F
  0.8571330061545336  0.3570510820056282  0.1951718721117969   T   T   T
  0.8561335249653083  0.3493648629436124  0.3301197513787029   T   T   T
  0.8563785180535742  0.3335057854367525  0.4701289317524426   T   T   T
  0.8578799960000012  0.1421200039999988  0.1080100009999967   F   F   F
  0.8567644432100903  0.1555608687867125  0.2450143625293505   T   T   T
  0.8558263626401712  0.1473321669302695  0.3817145356458188   T   T   T
  0.8541556611656453  0.1153936382447901  0.5184893603362896   T   T   T
  0.1078799960000012  0.8921200039999988  0.0000000000000000   F   F   F
  0.1080865002129566  0.8952398835222706  0.1277739793424909   T   T   T
  0.1017038315751030  0.8943770739519638  0.2648988375513343   T   T   T
  0.1003710723348154  0.8931716993814186  0.3965610581063215   T   T   T
  0.1078799960000012  0.5873200300000008  0.0473599990000011   F   F   F
  0.1085728836180879  0.6055810687785458  0.1772616206973293   T   T   T
  0.1001984361445190  0.6091192914599779  0.3152161701281597   T   T   T
  0.1050389778041305  0.5872299994544933  0.4518559666328228   T   T   T
  0.3578799960000012  0.8373200300000008  0.0606499980000024   F   F   F
  0.3571610797437377  0.8563102440363450  0.1958266618088379   T   T   T
  0.3557891780046394  0.8394445681444983  0.3331968276268315   T   T   T
  0.3555756159716976  0.8460429554626584  0.4667399308144747   T   T   T
  0.3578799960000012  0.6421200039999988  0.1080100009999967   F   F   F
  0.3566543493808452  0.6502906755041339  0.2461530809266234   T   T   T
  0.3563038759237745  0.6339704446889618  0.3859497097617235   T   T   T
  0.3499066114599163  0.6553795330370349  0.5206738105960109   T   T   T
  0.6078799960000012  0.8921200039999988  0.0000000000000000   F   F   F
  0.6070446720746792  0.8952336008822402  0.1277747596651273   T   T   T
  0.6114939440812666  0.8943210564582805  0.2649248234759155   T   T   T
  0.6111339901419690  0.8933524095509711  0.3964868729451984   T   T   T
  0.6078799960000012  0.5873200300000008  0.0473599990000011   F   F   F
  0.6059110646833140  0.6055653179244195  0.1772681119586890   T   T   T
  0.6123985570940496  0.6092386971278799  0.3151517068219158   T   T   T
  0.6055548707892389  0.5860966235460824  0.4526432213560251   T   T   T
  0.8578799960000012  0.8373200300000008  0.0606499980000024   F   F   F
  0.8571109200799759  0.8563163356781646  0.1956625505989594   T   T   T
  0.8536698408002978  0.8479131343795751  0.4664082328738914   T   T   T
  0.8578799960000012  0.6421200039999988  0.1080100009999967   F   F   F
  0.8567429623872996  0.6481592506524551  0.2454528647688041   T   T   T
  0.8556127964096077  0.6480437596696230  0.3812000253256373   T   T   T
  0.8547649529048990  0.6315317944632576  0.5165045295643996   T   T   T
  0.3545042701847415  0.2895591940040538  0.5382234590380772   T   T   T
  0.0499932229591741  0.8784106116571530  0.5393693590917187   T   T   T
  0.7090391369113273  0.8315929974239636  0.5440130911056995   T   T   T
  0.8558581033864816  0.3394322698051357  0.5321936009765414   T   T   T
 
  0.00000000E+00  0.00000000E+00  0.00000000E+00
  0.00000000E+00  0.00000000E+00  0.00000000E+00
  0.00000000E+00  0.00000000E+00  0.00000000E+00
  0.00000000E+00  0.00000000E+00  0.00000000E+00
  0.00000000E+00  0.00000000E+00  0.00000000E+00
  0.00000000E+00  0.00000000E+00  0.00000000E+00
  0.00000000E+00  0.00000000E+00  0.00000000E+00
  0.00000000E+00  0.00000000E+00  0.00000000E+00
  0.00000000E+00  0.00000000E+00  0.00000000E+00
  0.00000000E+00  0.00000000E+00  0.00000000E+00
  0.00000000E+00  0.00000000E+00  0.00000000E+00
  0.00000000E+00  0.00000000E+00  0.00000000E+00
  0.00000000E+00  0.00000000E+00  0.00000000E+00
  0.00000000E+00  0.00000000E+00  0.00000000E+00
  0.00000000E+00  0.00000000E+00  0.00000000E+00
  0.00000000E+00  0.00000000E+00  0.00000000E+00
  0.00000000E+00  0.00000000E+00  0.00000000E+00
  0.00000000E+00  0.00000000E+00  0.00000000E+00
  0.00000000E+00  0.00000000E+00  0.00000000E+00
  0.00000000E+00  0.00000000E+00  0.00000000E+00
  0.00000000E+00  0.00000000E+00  0.00000000E+00
  0.00000000E+00  0.00000000E+00  0.00000000E+00
  0.00000000E+00  0.00000000E+00  0.00000000E+00
  0.00000000E+00  0.00000000E+00  0.00000000E+00
  0.00000000E+00  0.00000000E+00  0.00000000E+00
  0.00000000E+00  0.00000000E+00  0.00000000E+00
  0.00000000E+00  0.00000000E+00  0.00000000E+00
  0.00000000E+00  0.00000000E+00  0.00000000E+00
  0.00000000E+00  0.00000000E+00  0.00000000E+00
  0.00000000E+00  0.00000000E+00  0.00000000E+00
  0.00000000E+00  0.00000000E+00  0.00000000E+00
  0.00000000E+00  0.00000000E+00  0.00000000E+00
  0.00000000E+00  0.00000000E+00  0.00000000E+00
  0.00000000E+00  0.00000000E+00  0.00000000E+00
  0.00000000E+00  0.00000000E+00  0.00000000E+00
  0.00000000E+00  0.00000000E+00  0.00000000E+00
  0.00000000E+00  0.00000000E+00  0.00000000E+00
  0.00000000E+00  0.00000000E+00  0.00000000E+00
  0.00000000E+00  0.00000000E+00  0.00000000E+00
  0.00000000E+00  0.00000000E+00  0.00000000E+00
  0.00000000E+00  0.00000000E+00  0.00000000E+00
  0.00000000E+00  0.00000000E+00  0.00000000E+00
  0.00000000E+00  0.00000000E+00  0.00000000E+00
  0.00000000E+00  0.00000000E+00  0.00000000E+00
  0.00000000E+00  0.00000000E+00  0.00000000E+00
  0.00000000E+00  0.00000000E+00  0.00000000E+00
  0.00000000E+00  0.00000000E+00  0.00000000E+00
  0.00000000E+00  0.00000000E+00  0.00000000E+00
  0.00000000E+00  0.00000000E+00  0.00000000E+00
  0.00000000E+00  0.00000000E+00  0.00000000E+00
  0.00000000E+00  0.00000000E+00  0.00000000E+00
  0.00000000E+00  0.00000000E+00  0.00000000E+00
  0.00000000E+00  0.00000000E+00  0.00000000E+00
  0.00000000E+00  0.00000000E+00  0.00000000E+00
  0.00000000E+00  0.00000000E+00  0.00000000E+00
  0.00000000E+00  0.00000000E+00  0.00000000E+00
  0.00000000E+00  0.00000000E+00  0.00000000E+00
  0.00000000E+00  0.00000000E+00  0.00000000E+00
  0.00000000E+00  0.00000000E+00  0.00000000E+00
  0.00000000E+00  0.00000000E+00  0.00000000E+00
  0.00000000E+00  0.00000000E+00  0.00000000E+00
  0.00000000E+00  0.00000000E+00  0.00000000E+00
  0.00000000E+00  0.00000000E+00  0.00000000E+00
  0.00000000E+00  0.00000000E+00  0.00000000E+00
  0.00000000E+00  0.00000000E+00  0.00000000E+00
  0.00000000E+00  0.00000000E+00  0.00000000E+00
  0.00000000E+00  0.00000000E+00  0.00000000E+00
  0.00000000E+00  0.00000000E+00  0.00000000E+00
  0.00000000E+00  0.00000000E+00  0.00000000E+00
  0.00000000E+00  0.00000000E+00  0.00000000E+00
  0.00000000E+00  0.00000000E+00  0.00000000E+00
  0.00000000E+00  0.00000000E+00  0.00000000E+00
  0.00000000E+00  0.00000000E+00  0.00000000E+00
  0.00000000E+00  0.00000000E+00  0.00000000E+00
  0.00000000E+00  0.00000000E+00  0.00000000E+00
  0.00000000E+00  0.00000000E+00  0.00000000E+00
  0.00000000E+00  0.00000000E+00  0.00000000E+00
  0.00000000E+00  0.00000000E+00  0.00000000E+00
  0.00000000E+00  0.00000000E+00  0.00000000E+00
  0.00000000E+00  0.00000000E+00  0.00000000E+00
  0.00000000E+00  0.00000000E+00  0.00000000E+00
  0.00000000E+00  0.00000000E+00  0.00000000E+00
  0.00000000E+00  0.00000000E+00  0.00000000E+00
  0.00000000E+00  0.00000000E+00  0.00000000E+00
  0.00000000E+00  0.00000000E+00  0.00000000E+00
  0.00000000E+00  0.00000000E+00  0.00000000E+00
  0.00000000E+00  0.00000000E+00  0.00000000E+00
  0.00000000E+00  0.00000000E+00  0.00000000E+00
  0.00000000E+00  0.00000000E+00  0.00000000E+00
  0.00000000E+00  0.00000000E+00  0.00000000E+00
  0.00000000E+00  0.00000000E+00  0.00000000E+00
  0.00000000E+00  0.00000000E+00  0.00000000E+00
  0.00000000E+00  0.00000000E+00  0.00000000E+00
  0.00000000E+00  0.00000000E+00  0.00000000E+00
  0.00000000E+00  0.00000000E+00  0.00000000E+00
  0.00000000E+00  0.00000000E+00  0.00000000E+00
  0.00000000E+00  0.00000000E+00  0.00000000E+00
  0.00000000E+00  0.00000000E+00  0.00000000E+00
  0.00000000E+00  0.00000000E+00  0.00000000E+00
