CONTCAR
1.0
        5.8881001472         0.0000000000         0.0000000000
       -0.0036334458         9.1320993825         0.0000000000
        0.0511582049         0.0393624635        34.8947385769
   Ti    O
   32   67
Selective Dynamics
Direct
     0.107879996         0.239720002         0.084330000 F F F
     0.105449997         0.245800003         0.219769999 T T T
     0.104979999         0.238230005         0.354759991 T T T
     0.104510002         0.236629993         0.494269997 T T T
     0.357879996         0.489719987         0.023680000 F F F
     0.356440008         0.494029999         0.151999995 T T T
     0.353500009         0.494109988         0.288430005 T T T
     0.353780001         0.493129998         0.421660006 T T T
     0.607879996         0.239720002         0.084330000 F F F
     0.605040014         0.245959997         0.219500005 T T T
     0.601390004         0.240429997         0.355749995 T T T
     0.603510022         0.236530006         0.494260013 T T T
     0.857879996         0.489719987         0.023680000 F F F
     0.857010007         0.493530005         0.151999995 T T T
     0.852829993         0.491919994         0.289059997 T T T
     0.859099984         0.494670004         0.422479987 T T T
     0.107879996         0.739719987         0.084330000 F F F
     0.104149997         0.742529988         0.219830006 T T T
     0.103589997         0.748179972         0.355300009 T T T
     0.105090000         0.732729971         0.494170010 T T T
     0.357879996         0.989719987         0.023680000 F F F
     0.356550008         0.992709994         0.152649999 T T T
     0.354730010         0.993520021         0.286929995 T T T
     0.351099998         0.987749994         0.426099986 T T T
     0.607879996         0.739719987         0.084330000 F F F
     0.605470002         0.741779983         0.219439998 T T T
     0.604640007         0.747300029         0.355930001 T T T
     0.593559980         0.726109982         0.491409987 T T T
     0.857879996         0.989719987         0.023680000 F F F
     0.856790006         0.993330002         0.152459994 T T T
     0.852710009         0.995840013         0.287129998 T T T
     0.851409972         0.997370005         0.424820006 T T T
     0.107879996         0.392120004         0.000000000 F F F
     0.107309997         0.394609988         0.127250001 T T T
     0.105760001         0.395460010         0.262329996 T T T
     0.105329998         0.393830001         0.397469997 T T T
     0.107879996         0.087320000         0.047359999 F F F
     0.106880002         0.101599999         0.177300006 T T T
     0.105219997         0.097580001         0.312959999 T T T
     0.104189999         0.098350003         0.448980004 T T T
     0.357879996         0.337320000         0.060649998 F F F
     0.356689990         0.350520015         0.194670007 T T T
     0.355120003         0.347350001         0.329869986 T T T
     0.354609996         0.339520007         0.463030010 T T T
     0.357879996         0.142120004         0.108010001 F F F
     0.356029987         0.144979998         0.245279998 T T T
     0.354070008         0.143500000         0.380650014 T T T
     0.354380012         0.121280000         0.513570011 T T T
     0.607879996         0.392120004         0.000000000 F F F
     0.607349992         0.394679993         0.127260000 T T T
     0.605870008         0.395399988         0.262360007 T T T
     0.604240000         0.393849999         0.397480011 T T T
     0.607879996         0.087320000         0.047359999 F F F
     0.607110023         0.101640001         0.177310005 T T T
     0.605589986         0.097460002         0.312990010 T T T
     0.603479981         0.098260000         0.448980004 T T T
     0.857879996         0.337320000         0.060649998 F F F
     0.856599987         0.350549996         0.194680005 T T T
     0.855340004         0.347700000         0.329890013 T T T
     0.854130030         0.339100003         0.462830007 T T T
     0.857879996         0.142120004         0.108010001 F F F
     0.856069982         0.144909993         0.245289996 T T T
     0.854650021         0.143759996         0.380769998 T T T
     0.854569972         0.122910000         0.513530016 T T T
     0.107879996         0.892120004         0.000000000 F F F
     0.107320003         0.894429982         0.127299994 T T T
     0.105760001         0.894400001         0.262400001 T T T
     0.103260003         0.892700016         0.398799986 T T T
     0.107879996         0.587320030         0.047359999 F F F
     0.107050002         0.600880027         0.177070007 T T T
     0.105760001         0.599070013         0.313540012 T T T
     0.103069998         0.592570007         0.449629992 T T T
     0.357879996         0.837320030         0.060649998 F F F
     0.356860012         0.850269973         0.194639996 T T T
     0.354820013         0.849059999         0.330410004 T T T
     0.352829993         0.850459993         0.467429996 T T T
     0.357879996         0.642120004         0.108010001 F F F
     0.356070012         0.645020008         0.245189995 T T T
     0.354900002         0.644869983         0.381469995 T T T
     0.352039993         0.653880000         0.518790007 T T T
     0.607879996         0.892120004         0.000000000 F F F
     0.607420027         0.894479990         0.127299994 T T T
     0.605690002         0.894379973         0.262419999 T T T
     0.604240000         0.893230021         0.398600012 T T T
     0.607879996         0.587320030         0.047359999 F F F
     0.606840014         0.600939989         0.177059993 T T T
     0.605030000         0.599089980         0.313490003 T T T
     0.605660021         0.591709971         0.449640006 T T T
     0.857879996         0.837320030         0.060649998 F F F
     0.856660008         0.850199997         0.194639996 T T T
     0.855270028         0.849070013         0.330430001 T T T
     0.857879996         0.642120004         0.108010001 F F F
     0.855929971         0.645299971         0.245140001 T T T
     0.854330003         0.644410014         0.381190002 T T T
     0.850530028         0.643069983         0.517610013 T T T
     0.353639990         0.348329991         0.524259984 T T T
     0.083970003         0.878030002         0.537639976 T T T
     0.727240026         0.865620017         0.530809999 T T T
     0.853590012         0.349319994         0.523970008 T T T
 